 # Version information for this restart file 
 # current date 2026-04-22 11:54:42.100
 # current working dir /DATA/lab07/hglee/cp2k_agent/test/level7
 # Program compiled at                                       2026-03-01 16:41:12
 # Program compiled on                                                    master
 # Program compiled for                                                   x86_64
 # Source code revision number                                       git:5e54ba2
 &GLOBAL
   PRINT_LEVEL LOW
   PROJECT_NAME "2gly_B-NEB-r-0"
   OUTPUT_FILE_NAME 2gly_B-NEB-r-0.out
   RUN_TYPE BAND
 &END GLOBAL
 &MOTION
   &BAND
     NPROC_REP 1
     BAND_TYPE B-NEB
     NUMBER_OF_REPLICA 5
     ROTATE_FRAMES T
     K_SPRING  5.0000000000000003E-002
     &CONVERGENCE_CONTROL
       MAX_FORCE  1.0000000000000000E-003
       RMS_FORCE  5.0000000000000001E-004
     &END CONVERGENCE_CONTROL
     &OPTIMIZE_BAND
       OPT_TYPE MD
       &MD
         MAX_STEPS 20
         TIMESTEP  4.9999999999999994E-001
         TEMPERATURE  1.0000000000000001E+002
         &VEL_CONTROL
           ANNEALING  9.4999999999999996E-001
           PROJ_VELOCITY_VERLET T
         &END VEL_CONTROL
       &END MD
     &END OPTIMIZE_BAND
     &REPLICA
       &COORD
           3.3290000000000006E+000  1.5780000000000003E+000 -2.8199999999999997E-001
           4.0149999999999997E+000  9.6499999999999997E-001 -7.0000000000000007E-001
           2.6180000000000003E+000  1.7849999999999999E+000 -9.6900000000000008E-001
           3.0670000000000002E+000  1.2050000000000001E+000  6.1899999999999999E-001
           3.9700000000000006E+000  2.8460000000000001E+000  0.0000000000000000E+000
           3.6899999999999999E+000  3.5730000000000000E+000 -7.6200000000000001E-001
           3.6509999999999998E+000  3.2050000000000001E+000  9.7899999999999998E-001
           5.4840000000000000E+000  2.6870000000000003E+000  0.0000000000000000E+000
           5.9930000000000012E+000  1.5680000000000001E+000  0.0000000000000000E+000
           6.2030000000000012E+000  3.8110000000000004E+000  0.0000000000000000E+000
           5.7450000000000001E+000  4.7030000000000003E+000 -1.2200000000000000E-001
           7.6420000000000003E+000  3.7999999999999998E+000  1.7100000000000001E-001
           7.8830000000000000E+000  3.5540000000000003E+000  1.2050000000000001E+000
           8.0809999999999995E+000  3.0550000000000006E+000 -4.9200000000000005E-001
           8.2270000000000003E+000  5.1660000000000013E+000 -1.6200000000000003E-001
           7.5410000000000004E+000  6.0170000000000003E+000 -7.2399999999999998E-001
           9.3910000000000018E+000  5.4320000000000004E+000  1.2600000000000000E-001
       &END COORD
       &VELOCITY
           0.0000000000000000E+000  0.0000000000000000E+000  0.0000000000000000E+000
           0.0000000000000000E+000  0.0000000000000000E+000  0.0000000000000000E+000
           0.0000000000000000E+000  0.0000000000000000E+000  0.0000000000000000E+000
           0.0000000000000000E+000  0.0000000000000000E+000  0.0000000000000000E+000
           0.0000000000000000E+000  0.0000000000000000E+000  0.0000000000000000E+000
           0.0000000000000000E+000  0.0000000000000000E+000  0.0000000000000000E+000
           0.0000000000000000E+000  0.0000000000000000E+000  0.0000000000000000E+000
           0.0000000000000000E+000  0.0000000000000000E+000  0.0000000000000000E+000
           0.0000000000000000E+000  0.0000000000000000E+000  0.0000000000000000E+000
           0.0000000000000000E+000  0.0000000000000000E+000  0.0000000000000000E+000
           0.0000000000000000E+000  0.0000000000000000E+000  0.0000000000000000E+000
           0.0000000000000000E+000  0.0000000000000000E+000  0.0000000000000000E+000
           0.0000000000000000E+000  0.0000000000000000E+000  0.0000000000000000E+000
           0.0000000000000000E+000  0.0000000000000000E+000  0.0000000000000000E+000
           0.0000000000000000E+000  0.0000000000000000E+000  0.0000000000000000E+000
           0.0000000000000000E+000  0.0000000000000000E+000  0.0000000000000000E+000
           0.0000000000000000E+000  0.0000000000000000E+000  0.0000000000000000E+000
       &END VELOCITY
     &END REPLICA
     &REPLICA
       &COORD
           3.4430180859159480E+000  1.9696032090582238E+000 -7.9363459373744916E-001
           3.4648170476780997E+000  1.8229576776352407E+000 -1.7925956473474087E+000
           3.3541604937313005E+000  2.9591078668133313E+000 -6.0969101762535671E-001
           2.7878051140814630E+000  1.3218335211092507E+000 -3.8137693507172271E-001
           4.7351330697116847E+000  1.5958089679746816E+000 -2.5778746630126381E-001
           4.6001568727413140E+000  9.4981775638829746E-001  6.0974269624992716E-001
           5.3038467257742061E+000  1.0632299634978346E+000 -1.0187151661124441E+000
           5.5106774313819020E+000  2.8364789005388134E+000  1.6657567384818842E-001
           5.1806182707684947E+000  3.4680597524877661E+000  1.1702068607347589E+000
           6.5508818314747765E+000  3.1790229425225429E+000 -5.9532414373531795E-001
           6.4493361916373173E+000  3.2246598741574282E+000 -1.6004471220854890E+000
           7.8419231134607461E+000  3.5023017907933904E+000 -2.8863906074343311E-002
           7.8635422569207263E+000  3.2089878810187851E+000  1.0186424346743710E+000
           8.6224078240387474E+000  2.9669342262506100E+000 -5.7201368930415608E-001
           8.1115827255142037E+000  4.9985678865921885E+000 -1.2994869385228644E-001
           7.5072921397955952E+000  5.7921655653599675E+000  5.8553943035667810E-001
           8.9420009523307264E+000  5.4278432129710090E+000 -9.3145473192462525E-001
       &END COORD
       &VELOCITY
           4.2755910607463714E-005 -2.7205887205215762E-005 -3.1869344111106352E-005
           4.2601292978560292E-006  1.6873718261398826E-005  4.0344566074071168E-005
           3.5423247225948776E-006 -3.0207936423232705E-005  9.0705336678343672E-005
          -2.4787087777011918E-005  1.1477993864234336E-004 -2.2089423397571365E-005
           4.3458504952461093E-005  3.6223859492486529E-006  7.6833845737143798E-006
          -2.0409415355113900E-006 -2.6286643744292439E-005  4.7945620455456262E-005
           4.0339725173393110E-005 -4.8558430950008086E-005  6.3824200330372925E-006
           2.0698491144375489E-005  5.1724617785366214E-005 -1.1181723236506776E-005
          -3.0774635822300586E-005 -1.9324940234328227E-005  3.2484135206533098E-006
          -2.0909987305307523E-005  5.8047404978217045E-006 -1.9446666440816280E-005
           1.2579522462608127E-004 -5.0556122303040798E-005 -2.8910104341078779E-005
           1.1583910983071306E-005  1.9977180739729229E-005 -1.0780293694206420E-005
           1.4137384172515531E-005 -3.5687898680443314E-005 -1.6884773419124663E-005
          -5.3226809891439467E-006 -5.1699560470963559E-006 -1.9041877416602593E-005
           2.4411984526213024E-006  1.8099506129938644E-005 -2.8811946189496656E-006
          -6.8964120976617801E-005 -3.0664465973958919E-005  6.8335716366854619E-005
           9.8525795961053408E-006 -4.9915452325403321E-005 -6.9987457316156805E-005
       &END VELOCITY
     &END REPLICA
     &REPLICA
       &COORD
           4.6784661308606079E+000  1.1798443056358381E+000 -2.7801063805287968E-001
           3.9678612974655647E+000  5.8542981569719710E-001  1.3591424666585591E-001
           5.5732923353082864E+000  7.0299756454278794E-001 -2.1686933746198958E-001
           4.3547254559386674E+000  1.5240352988730843E+000 -1.1667935107421454E+000
           4.8068241453838123E+000  2.3558560629295591E+000  5.5788983980665630E-001
           3.8368405455338723E+000  2.6142779004778713E+000  9.8130392475127692E-001
           5.5161746457932095E+000  2.1582405002647196E+000  1.3582677276340931E+000
           5.3062924028979799E+000  3.5338984778792724E+000 -2.6498682417562164E-001
           4.8216847106864753E+000  4.6535715297055029E+000 -1.0745234694592878E-001
           6.2793964682926102E+000  3.2815932896271049E+000 -1.1422592748002818E+000
           6.0417969697620162E+000  3.0480763377933453E+000 -2.0926483713448571E+000
           7.6786291558930566E+000  3.3372732274556047E+000 -7.7565748505314835E-001
           7.9490246566642240E+000  2.4380981235251911E+000 -2.3841305183893249E-001
           8.2849336725825484E+000  3.4262182066790881E+000 -1.6689729083575742E+000
           7.9439543809696671E+000  4.5432609208083319E+000  1.1438341706305760E-001
           8.6848899092258840E+000  4.4423821346060635E+000  1.0965388554167677E+000
           7.4333185168124656E+000  5.6297325479863085E+000 -1.3915345916803318E-001
       &END COORD
       &VELOCITY
           2.5830966990133224E-004 -1.6369449057676826E-004  3.7626088699469656E-004
           5.9340648850806223E-004  7.6861145565836045E-005  6.8863822515762615E-004
           8.6897205664009602E-004 -3.2074469394799567E-004 -1.7440142893462812E-005
           8.2655422312029401E-004 -1.1267013977530105E-004  3.9642362184921232E-005
           9.0836684086806457E-005  2.4413181201674892E-004  3.9587562019164462E-005
           2.2084435889235181E-004  4.2689008356602631E-004 -3.7936186208554958E-004
          -1.1548803083380730E-004  2.3221274001475562E-004  2.4694166715108810E-004
           8.3439529407920733E-006  2.4778676878207457E-004 -5.8027563315930562E-005
          -3.0521695710801039E-004  9.9808613785685038E-006 -2.8982651197805693E-004
          -1.2357265054501859E-004  1.9574119896846365E-004  3.2093331058415978E-005
          -1.3404714156195428E-004  5.8362121719834903E-004  2.5470866820688807E-004
          -1.1753747094550381E-004  1.9053331395833383E-004  5.7843353915039705E-005
          -5.2188973215127060E-005  3.8889402643321671E-004 -1.6142993336302144E-004
          -3.2342453000841302E-004  3.4978209300129328E-004  3.0144607314933021E-004
           5.2635975629866182E-005 -4.6457298929649554E-005  1.2588825271722911E-004
           2.0983148433639483E-004 -6.0542304075433579E-004  8.4497782810612638E-005
          -3.1177689175130267E-004 -8.9375248558685777E-005 -1.7412588279799973E-004
       &END VELOCITY
     &END REPLICA
     &REPLICA
       &COORD
           6.1550824016714074E+000  1.8654418989193555E+000  4.2004166777340762E-001
           6.0495345781890402E+000  2.5133883443186975E+000  1.1888596391076596E+000
           7.1464016281115077E+000  1.8828893051804449E+000  1.9519080054222360E-001
           5.8120464662245084E+000  9.4855720553464440E-001  6.2629789896711008E-001
           5.4526828167760097E+000  2.4584941986611684E+000 -7.1261967394242631E-001
           6.1293604717996022E+000  2.4934930027342292E+000 -1.5706613913031291E+000
           4.6010999934732153E+000  1.8335329729958385E+000 -9.5351846374899940E-001
           4.9709559501780278E+000  3.8750893268182516E+000 -3.8248543646887134E-001
           3.7794849582319481E+000  4.0845444653650329E+000 -5.9412872119583282E-001
           5.7077835442793967E+000  4.8777051438060228E+000  1.3760137697381122E-001
           5.3096632518175060E+000  5.7954292052633845E+000  7.9710988151837470E-002
           7.0350491563163811E+000  4.8947730539378185E+000  7.1886202504548224E-001
           7.4289424059016209E+000  5.9092949517622726E+000  6.7797639794596420E-001
           6.9463231066749946E+000  4.6135551123453622E+000  1.7667050259521226E+000
           7.9644770410022705E+000  3.9607143277971750E+000 -1.7880747082376955E-002
           8.4744053649260316E+000  3.0655847886275285E+000  6.7803803751791625E-001
           7.8825364267735853E+000  3.9146174406847098E+000 -1.2564382670711738E+000
       &END COORD
       &VELOCITY
           1.6145640751100201E-005  1.5231020876847021E-005 -1.7137278277239853E-005
           4.3632789796276216E-005 -1.0900826352356585E-004  1.6640434720814247E-005
           1.0678957615380607E-004 -2.6234858687662899E-005 -4.3425873802754761E-005
           5.1753239513766829E-005  1.5013615871775234E-005 -1.5249141074148083E-005
           3.7826208045227245E-005  2.7144384669391720E-005  3.4570854663706854E-005
          -7.7963780448721395E-005  4.9905713352274411E-005  1.4479426958738567E-005
          -2.6463754558776326E-005  1.3198488371853825E-005  8.8398407570758653E-005
           3.8713777059838931E-007 -8.5352708739958543E-008 -1.2286514792858058E-005
           2.2506607251624681E-005  1.5454652937173870E-005 -8.0077050189785117E-006
           1.0861948841216370E-005 -3.9399975519836101E-005 -1.5306684879068963E-005
          -3.1662657258421858E-005 -3.3903155790798079E-005 -2.5367407026879238E-005
           9.0333536377928991E-006 -5.5831837436955800E-007 -2.9697720361160981E-005
           3.2728302283706146E-005 -2.7603579655008705E-005 -8.8829836521568607E-005
           3.3765142552806825E-005  5.4828153151352132E-005 -4.1151637320314557E-005
          -2.7114226622825254E-005  1.5844732673588669E-005  3.3090130944687013E-006
           1.4447085861512555E-005 -4.8871336959368286E-005  5.3863619059505910E-005
          -5.9817135051389783E-005  3.0214244421669522E-005 -1.9975529469230599E-005
       &END VELOCITY
     &END REPLICA
     &REPLICA
       &COORD
           3.5811601886640583E+000  1.4569379228557449E+000 -4.7654447314832687E-003
           2.9834289013446273E+000  2.2271487517398851E+000 -2.7043739889500096E-001
           3.4301786601777486E+000  1.2512910244702427E+000  9.7221353725347326E-001
           3.4919017596550157E+000  7.2453007574980988E-001 -6.9465723215070363E-001
           4.9566469831582367E+000  1.9021648322308142E+000 -9.4420769952324402E-002
           5.5156934624163032E+000  1.5314026602686228E+000  7.6528001861951278E-001
           5.4044008527805403E+000  1.5190080522388520E+000 -1.0110888419306416E+000
           5.0223683710063165E+000  3.4229974347769723E+000 -1.0945054746243255E-001
           4.0294841102271430E+000  4.0923555684359663E+000  1.6872661479490872E-001
           6.1961660725416632E+000  3.9673091690482272E+000 -4.3542706779013668E-001
           6.2436497268956819E+000  4.6666867897965867E+000 -1.1634499013369639E+000
           7.4280303875936351E+000  3.5864325955238652E+000  2.2634732355624917E-001
           7.2775517088882706E+000  3.5970077412580395E+000  1.3064271046593816E+000
           7.7156176085738322E+000  2.5850661922582976E+000 -9.1624242373583506E-002
           8.5439556826638334E+000  4.5586982471287198E+000 -1.2825137713494100E-001
           8.2897106893714483E+000  5.6194754755900407E+000 -6.9457650898384271E-001
           9.7109151948402754E+000  4.2948789295565977E+000  1.4907670405537060E-001
       &END COORD
       &VELOCITY
           0.0000000000000000E+000  0.0000000000000000E+000  0.0000000000000000E+000
           0.0000000000000000E+000  0.0000000000000000E+000  0.0000000000000000E+000
           0.0000000000000000E+000  0.0000000000000000E+000  0.0000000000000000E+000
           0.0000000000000000E+000  0.0000000000000000E+000  0.0000000000000000E+000
           0.0000000000000000E+000  0.0000000000000000E+000  0.0000000000000000E+000
           0.0000000000000000E+000  0.0000000000000000E+000  0.0000000000000000E+000
           0.0000000000000000E+000  0.0000000000000000E+000  0.0000000000000000E+000
           0.0000000000000000E+000  0.0000000000000000E+000  0.0000000000000000E+000
           0.0000000000000000E+000  0.0000000000000000E+000  0.0000000000000000E+000
           0.0000000000000000E+000  0.0000000000000000E+000  0.0000000000000000E+000
           0.0000000000000000E+000  0.0000000000000000E+000  0.0000000000000000E+000
           0.0000000000000000E+000  0.0000000000000000E+000  0.0000000000000000E+000
           0.0000000000000000E+000  0.0000000000000000E+000  0.0000000000000000E+000
           0.0000000000000000E+000  0.0000000000000000E+000  0.0000000000000000E+000
           0.0000000000000000E+000  0.0000000000000000E+000  0.0000000000000000E+000
           0.0000000000000000E+000  0.0000000000000000E+000  0.0000000000000000E+000
           0.0000000000000000E+000  0.0000000000000000E+000  0.0000000000000000E+000
       &END VELOCITY
     &END REPLICA
     &PROGRAM_RUN_INFO SILENT
     &END PROGRAM_RUN_INFO
     &CONVERGENCE_INFO SILENT
     &END CONVERGENCE_INFO
   &END BAND
   &PRINT
     &VELOCITIES OFF
     &END VELOCITIES
   &END PRINT
 &END MOTION
 &FORCE_EVAL
   METHOD FIST
   &MM
     &FORCEFIELD
       PARMTYPE CHM
       PARM_FILE_NAME ./amber/mol.pot
       &SPLINE
         R0_NB  5.2917720859000010E-005
         RCUT_NB  2.0000000000000004E+001
         EMAX_SPLINE  1.0000000000000000E+010
         EMAX_ACCURACY  5.0000000000000000E+002
         EPS_SPLINE  9.9999999999999995E-007
       &END SPLINE
     &END FORCEFIELD
     &POISSON
       &EWALD
         EWALD_TYPE EWALD
         ALPHA  3.5999999999999999E-001
         GMAX 29
       &END EWALD
     &END POISSON
     &PRINT
       &FF_INFO SILENT
         SPLINE_INFO T
       &END FF_INFO
     &END PRINT
   &END MM
   &SUBSYS
     &CELL
       A  3.0000000000000007E+001  0.0000000000000000E+000  0.0000000000000000E+000
       B  0.0000000000000000E+000  3.0000000000000007E+001  0.0000000000000000E+000
       C  0.0000000000000000E+000  0.0000000000000000E+000  3.0000000000000007E+001
       MULTIPLE_UNIT_CELL 1 1 1
     &END CELL
     &COORD
       N3  3.3290000000000006E+000  1.5780000000000003E+000 -2.8199999999999997E-001
       H11  4.0149999999999997E+000  9.6499999999999997E-001 -7.0000000000000007E-001
       H11  2.6180000000000003E+000  1.7849999999999999E+000 -9.6900000000000008E-001
       H11  3.0670000000000002E+000  1.2050000000000001E+000  6.1899999999999999E-001
       CT1  3.9700000000000006E+000  2.8460000000000001E+000  0.0000000000000000E+000
       HP  3.6899999999999999E+000  3.5730000000000000E+000 -7.6200000000000001E-001
       HP  3.6509999999999998E+000  3.2050000000000001E+000  9.7899999999999998E-001
       C1  5.4840000000000000E+000  2.6870000000000003E+000  0.0000000000000000E+000
       O  5.9930000000000012E+000  1.5680000000000001E+000  0.0000000000000000E+000
       N  6.2030000000000012E+000  3.8110000000000004E+000  0.0000000000000000E+000
       H2  5.7450000000000001E+000  4.7030000000000003E+000 -1.2200000000000000E-001
       CT2  7.6420000000000003E+000  3.7999999999999998E+000  1.7100000000000001E-001
       H12  7.8830000000000000E+000  3.5540000000000003E+000  1.2050000000000001E+000
       H12  8.0809999999999995E+000  3.0550000000000006E+000 -4.9200000000000005E-001
       C2  8.2270000000000003E+000  5.1660000000000013E+000 -1.6200000000000003E-001
       O2  7.5410000000000004E+000  6.0170000000000003E+000 -7.2399999999999998E-001
       O2  9.3910000000000018E+000  5.4320000000000004E+000  1.2600000000000000E-001
     &END COORD
     &TOPOLOGY
       CHARGE_BETA T
       COORD_FILE_NAME ./amber/mol.pdb
       COORD_FILE_FORMAT PDB
       NUMBER_OF_ATOMS 17
       CONN_FILE_NAME ./amber/mol.psf
       CONN_FILE_FORMAT UPSF
       MULTIPLE_UNIT_CELL 1 1 1
     &END TOPOLOGY
   &END SUBSYS
 &END FORCE_EVAL
