 # Version information for this restart file 
 # current date 2026-04-22 11:54:42.165
 # current working dir /DATA/lab07/hglee/cp2k_agent/test/level7
 # Program compiled at                                       2026-03-01 16:41:12
 # Program compiled on                                                    master
 # Program compiled for                                                   x86_64
 # Source code revision number                                       git:5e54ba2
 &GLOBAL
   PRINT_LEVEL LOW
   PROJECT_NAME "2gly_B-NEB-r-0"
   OUTPUT_FILE_NAME 2gly_B-NEB-r-0.out
   RUN_TYPE BAND
 &END GLOBAL
 &MOTION
   &BAND
     NPROC_REP 1
     BAND_TYPE B-NEB
     NUMBER_OF_REPLICA 5
     ROTATE_FRAMES T
     K_SPRING  5.0000000000000003E-002
     &CONVERGENCE_CONTROL
       MAX_FORCE  1.0000000000000000E-003
       RMS_FORCE  5.0000000000000001E-004
     &END CONVERGENCE_CONTROL
     &OPTIMIZE_BAND
       OPT_TYPE MD
       &MD
         MAX_STEPS 20
         TIMESTEP  4.9999999999999994E-001
         TEMPERATURE  1.0000000000000001E+002
         &VEL_CONTROL
           ANNEALING  9.4999999999999996E-001
           PROJ_VELOCITY_VERLET T
         &END VEL_CONTROL
       &END MD
     &END OPTIMIZE_BAND
     &REPLICA
       &COORD
           3.3290000000000006E+000  1.5780000000000003E+000 -2.8199999999999997E-001
           4.0149999999999997E+000  9.6499999999999997E-001 -7.0000000000000007E-001
           2.6180000000000003E+000  1.7849999999999999E+000 -9.6900000000000008E-001
           3.0670000000000002E+000  1.2050000000000001E+000  6.1899999999999999E-001
           3.9700000000000006E+000  2.8460000000000001E+000  0.0000000000000000E+000
           3.6899999999999999E+000  3.5730000000000000E+000 -7.6200000000000001E-001
           3.6509999999999998E+000  3.2050000000000001E+000  9.7899999999999998E-001
           5.4840000000000000E+000  2.6870000000000003E+000  0.0000000000000000E+000
           5.9930000000000012E+000  1.5680000000000001E+000  0.0000000000000000E+000
           6.2030000000000012E+000  3.8110000000000004E+000  0.0000000000000000E+000
           5.7450000000000001E+000  4.7030000000000003E+000 -1.2200000000000000E-001
           7.6420000000000003E+000  3.7999999999999998E+000  1.7100000000000001E-001
           7.8830000000000000E+000  3.5540000000000003E+000  1.2050000000000001E+000
           8.0809999999999995E+000  3.0550000000000006E+000 -4.9200000000000005E-001
           8.2270000000000003E+000  5.1660000000000013E+000 -1.6200000000000003E-001
           7.5410000000000004E+000  6.0170000000000003E+000 -7.2399999999999998E-001
           9.3910000000000018E+000  5.4320000000000004E+000  1.2600000000000000E-001
       &END COORD
       &VELOCITY
           0.0000000000000000E+000  0.0000000000000000E+000  0.0000000000000000E+000
           0.0000000000000000E+000  0.0000000000000000E+000  0.0000000000000000E+000
           0.0000000000000000E+000  0.0000000000000000E+000  0.0000000000000000E+000
           0.0000000000000000E+000  0.0000000000000000E+000  0.0000000000000000E+000
           0.0000000000000000E+000  0.0000000000000000E+000  0.0000000000000000E+000
           0.0000000000000000E+000  0.0000000000000000E+000  0.0000000000000000E+000
           0.0000000000000000E+000  0.0000000000000000E+000  0.0000000000000000E+000
           0.0000000000000000E+000  0.0000000000000000E+000  0.0000000000000000E+000
           0.0000000000000000E+000  0.0000000000000000E+000  0.0000000000000000E+000
           0.0000000000000000E+000  0.0000000000000000E+000  0.0000000000000000E+000
           0.0000000000000000E+000  0.0000000000000000E+000  0.0000000000000000E+000
           0.0000000000000000E+000  0.0000000000000000E+000  0.0000000000000000E+000
           0.0000000000000000E+000  0.0000000000000000E+000  0.0000000000000000E+000
           0.0000000000000000E+000  0.0000000000000000E+000  0.0000000000000000E+000
           0.0000000000000000E+000  0.0000000000000000E+000  0.0000000000000000E+000
           0.0000000000000000E+000  0.0000000000000000E+000  0.0000000000000000E+000
           0.0000000000000000E+000  0.0000000000000000E+000  0.0000000000000000E+000
       &END VELOCITY
     &END REPLICA
     &REPLICA
       &COORD
           3.4902456733248819E+000  1.9170288823242103E+000 -8.3284852818947108E-001
           3.5561878017590201E+000  1.7076726885388926E+000 -1.8104764079413558E+000
           3.3870477709737670E+000  2.9152625559094512E+000 -7.0585964143876412E-001
           2.8012742450636443E+000  1.3168461421211812E+000 -4.1419032247940396E-001
           4.7512732491659371E+000  1.5872714876204648E+000 -1.9978350169434181E-001
           4.5613915585350497E+000  1.0000027844691985E+000  7.0659633049452508E-001
           5.3570151125532863E+000  9.9772578576088400E-001 -8.9087140510498430E-001
           5.4988673256328138E+000  2.8648675714914065E+000  1.7270852738386674E-001
           5.1086474733241030E+000  3.5532505477019782E+000  1.1150342316376687E+000
           6.5747518475858016E+000  3.1498665252198257E+000 -5.5688088037890626E-001
           6.5458139319992776E+000  3.1138021121502804E+000 -1.5667201485659739E+000
           7.8373821060507129E+000  3.5151388311421714E+000  5.4950114784981165E-002
           7.8041429742469743E+000  3.2861840439655783E+000  1.1192531422340337E+000
           8.6425101994758542E+000  2.9419523629426778E+000 -4.0897857357492351E-001
           8.1124204059906209E+000  5.0018944450355960E+000 -1.3261040080948835E-001
           7.4600752457499144E+000  5.8315569091901800E+000  5.0658339236973338E-001
           8.9852767556590063E+000  5.3627920137212488E+000 -9.2934696817902862E-001
       &END COORD
       &VELOCITY
           2.8120918060528874E-004 -6.6893354450042462E-005 -2.6331356982277298E-005
           4.5689641041729271E-005  2.5103701272921443E-005  1.5450406191529528E-005
           1.5032553202973939E-004 -1.2596142697243100E-004  2.5015519927907979E-004
          -1.5863837369761083E-005  2.5035469432084994E-004 -1.2495441460698005E-004
           2.5487013813970576E-004 -4.3381157486222417E-005  7.7710876281082011E-005
           3.2235796562017599E-005 -4.6037011014293447E-005  1.2531114792366393E-004
           1.7720653104300434E-004 -1.4286075084323782E-004  6.6585828338372409E-005
           2.1226617488849789E-005  2.0113506310313883E-004 -8.8263371568178981E-005
          -1.9461193382860241E-004  1.3088817176911483E-005  1.0331877346519494E-005
           3.3313287459796666E-005  9.6577803351417650E-005 -1.4392528616195030E-004
           3.2767609735762153E-004 -2.3379648043406158E-004 -1.3507307242570618E-004
           2.6752927953354806E-005  6.1588323952088510E-005 -8.3378073826924094E-005
           4.1466595234621662E-005 -1.1559650393136935E-004 -9.3408707258243952E-005
          -3.3659884373071209E-006  1.0984453763938620E-005 -8.0380419938231120E-005
          -2.5079218656883996E-005  7.4584889318765293E-005  8.2918121755961238E-006
          -2.9753605835562745E-004 -2.5147366325438891E-004  3.5965263315144525E-004
          -6.1267980230257052E-005 -2.8460716609218182E-004 -3.4073882126785509E-004
       &END VELOCITY
     &END REPLICA
     &REPLICA
       &COORD
           4.7553832568786145E+000  1.1530800881535226E+000 -1.5365301252177674E-001
           4.0325371154502268E+000  6.1625956714727925E-001  3.1008436001296058E-001
           5.6797216139051301E+000  6.7000204408065100E-001 -5.7797092850244265E-002
           4.5283972623422519E+000  1.4333947561818772E+000 -1.1087386207740686E+000
           4.7958642453782074E+000  2.4329629823676400E+000  5.5567135818705493E-001
           3.8093707224994220E+000  2.7421752770989065E+000  8.5121382612502039E-001
           5.4198175141880460E+000  2.2973931139524932E+000  1.4335098712271606E+000
           5.3140464257195807E+000  3.5554145540026707E+000 -3.2452750177284945E-001
           4.7755347415230265E+000  4.6535684291214077E+000 -3.1129609158601007E-001
           6.3177422237869783E+000  3.2492055792565431E+000 -1.1159213624397446E+000
           6.1215856552923169E+000  3.0088529699020263E+000 -2.0534569118247221E+000
           7.6872888397175254E+000  3.3318349755107439E+000 -6.8150650903574850E-001
           7.9472040565677888E+000  2.4819721842908842E+000 -1.0393461005723025E-001
           8.3214226867078125E+000  3.3853929132088680E+000 -1.5261370555202449E+000
           7.9352115844071829E+000  4.5541419900715709E+000  1.5202381803603077E-001
           8.6474762696512570E+000  4.4334752345238915E+000  1.1710891405341028E+000
           7.3972932189684997E+000  5.6036247027712065E+000 -2.3551688144099323E-001
       &END COORD
       &VELOCITY
           2.1450570682182055E-003 -2.9256411242256647E-004  1.3620915922301139E-003
           1.8325249985238147E-003  2.8198654796245771E-004  2.1835303144748927E-003
           2.0118212109310214E-003 -4.1116442477557978E-004  5.3312358455014531E-004
           2.5023059248897479E-003 -6.6659782997624518E-004  9.0762389467032760E-004
           7.5473434497666189E-004  7.5327680927397877E-004  8.0359653111704063E-005
           4.7631149064677499E-004  1.1804278243010835E-003 -1.2100156178189770E-003
          -3.7569845011797078E-004  1.0734230680895804E-003  7.2771186682333189E-004
          -1.6666903062232750E-004  8.4917135139255483E-004 -6.4923303749675763E-005
          -1.4909838621752496E-003  2.1928069733956248E-004 -1.5230363458875944E-003
          -3.9243360923003066E-004  9.4153996476385184E-004  2.2914462324281817E-004
          -5.3104277944963235E-004  2.0404294902185440E-003  8.2120778207005977E-005
          -6.4794039256484528E-004  9.0154685548808665E-004  2.3032309191514639E-004
          -1.1211959209638927E-004  8.2773361336964130E-004 -3.9599047631725065E-004
          -7.9871040613163288E-004  1.3018421386331114E-003  3.9200210530105869E-004
          -1.8820050981729559E-005 -2.0448241284104371E-004  5.2313024591774321E-004
           5.2691190988408650E-004 -2.2243348333722658E-003  1.9276005555508553E-004
          -8.1293181494346961E-004 -6.4454762744950932E-004 -7.2881312731118829E-005
       &END VELOCITY
     &END REPLICA
     &REPLICA
       &COORD
           6.1226203394638032E+000  1.9118419841038066E+000  5.3895076630036554E-001
           5.9780088225858741E+000  2.6022125426934899E+000  1.2581876892163641E+000
           7.1298480341631238E+000  1.9045556653412252E+000  3.6626772577749439E-001
           5.7624125955864374E+000  1.0163105009292490E+000  7.9634418129427453E-001
           5.4813171037427857E+000  2.4219781539346639E+000 -6.6410811977713968E-001
           6.1900775728099910E+000  2.3921009860531637E+000 -1.4902584104317742E+000
           4.6336740986007809E+000  1.7826923940382062E+000 -8.9294689038578046E-001
           4.9908957653306887E+000  3.8560933501445005E+000 -4.7903656515366688E-001
           3.8167230233127185E+000  4.0553488209189190E+000 -7.7277904241808004E-001
           5.7050541091755447E+000  4.8891468248799477E+000  8.1615236405216873E-004
           5.3115217590853137E+000  5.7990151658438380E+000 -1.5142000141944986E-001
           6.9991706150266113E+000  4.9528263469036080E+000  6.4786924453382899E-001
           7.4062890532108261E+000  5.9551999017070836E+000  5.4126888415366392E-001
           6.8550647879057793E+000  4.7632498924942137E+000  1.7075286301552814E+000
           7.9562337870840922E+000  3.9603221021606272E+000  4.5385816012053576E-002
           8.4238792737092894E+000  3.1171192113953685E+000  8.4249750577619986E-001
           7.9331549310968290E+000  3.8258304303977182E+000 -1.1925733211364002E+000
       &END COORD
       &VELOCITY
           3.1492805664093095E-004 -6.4992172534544842E-005 -6.6410113569635991E-005
           2.0875904843363868E-004 -3.3800002105522145E-004  1.7435423364412371E-004
           2.8623588103902968E-004 -1.0130009138767078E-004 -1.3726057555093614E-004
           2.3650597679234118E-004 -8.4543677459659107E-006 -1.0188012720118167E-004
           1.5115788115334206E-005  8.1118877824386346E-005  1.4324270647795000E-004
          -2.4625554035384518E-004  1.8409693900986378E-004 -5.4893425173943393E-005
          -6.3098593766808058E-005  1.2951397192485767E-004  3.8844550030749694E-004
           4.2778540459302084E-005 -8.4690698772267582E-006 -6.4044580595760144E-006
           9.2093842246356697E-005  8.8876310979898145E-005 -8.9646285821812509E-005
           3.0240781161978420E-005 -8.3329486180015559E-005 -6.1110280428545215E-005
          -8.5843482126316421E-005 -1.6078179160959532E-004 -9.2817445617927760E-005
           6.9681514934102383E-005 -1.0476889339513806E-006 -1.6547416802434968E-004
           1.5903688106597974E-004 -9.0176315714919999E-005 -3.9288243263457112E-004
           1.4411483458961490E-004  2.2513014822198743E-004 -1.3182259712539373E-004
          -4.9493913547150520E-005 -1.1365977402952205E-004  2.3424305906587328E-005
          -1.5367795948500462E-005 -6.9350248367718920E-005  1.3466398851583021E-004
          -3.1592152311147649E-004  1.3494468697977991E-004 -1.9125556389835464E-005
       &END VELOCITY
     &END REPLICA
     &REPLICA
       &COORD
           3.5669975631567383E+000  1.4758839663226968E+000  7.3154085783532722E-003
           2.9896598185744203E+000  2.2239306357727786E+000 -3.5072971288714605E-001
           3.3605052146778083E+000  1.3475202170118232E+000  9.8734482542384427E-001
           3.5119736651816922E+000  6.9191102720371178E-001 -6.2726933862313028E-001
           4.9479942235626959E+000  1.9104947063494746E+000 -3.9489811226426808E-002
           5.4559626847505971E+000  1.6071932184175091E+000  8.7651196271107523E-001
           5.4438882959636983E+000  1.4560924386163518E+000 -8.9691657080216114E-001
           5.0235882548173345E+000  3.4253846510888626E+000 -1.6937821627541083E-001
           4.0207688101620063E+000  4.1160643144287636E+000 -3.9074907780242989E-004
           6.2169951895589968E+000  3.9406229809589162E+000 -4.7045354163973013E-001
           6.3092280682148703E+000  4.5808433526814385E+000 -1.2469919964031280E+000
           7.4077042043676515E+000  3.6106629739524219E+000  2.8706902292826886E-001
           7.1972602489452360E+000  3.7059211539278696E+000  1.3528866530948636E+000
           7.7065637821663575E+000  2.5870288428851484E+000  6.4800899995339986E-002
           8.5474982585190649E+000  4.5503996556857089E+000 -7.9120112800795103E-002
           8.3316270400556380E+000  5.5640496074616133E+000 -7.3982155241162506E-001
           9.6955592921034057E+000  4.3071773274963414E+000  2.8296380321232661E-001
       &END COORD
       &VELOCITY
           0.0000000000000000E+000  0.0000000000000000E+000  0.0000000000000000E+000
           0.0000000000000000E+000  0.0000000000000000E+000  0.0000000000000000E+000
           0.0000000000000000E+000  0.0000000000000000E+000  0.0000000000000000E+000
           0.0000000000000000E+000  0.0000000000000000E+000  0.0000000000000000E+000
           0.0000000000000000E+000  0.0000000000000000E+000  0.0000000000000000E+000
           0.0000000000000000E+000  0.0000000000000000E+000  0.0000000000000000E+000
           0.0000000000000000E+000  0.0000000000000000E+000  0.0000000000000000E+000
           0.0000000000000000E+000  0.0000000000000000E+000  0.0000000000000000E+000
           0.0000000000000000E+000  0.0000000000000000E+000  0.0000000000000000E+000
           0.0000000000000000E+000  0.0000000000000000E+000  0.0000000000000000E+000
           0.0000000000000000E+000  0.0000000000000000E+000  0.0000000000000000E+000
           0.0000000000000000E+000  0.0000000000000000E+000  0.0000000000000000E+000
           0.0000000000000000E+000  0.0000000000000000E+000  0.0000000000000000E+000
           0.0000000000000000E+000  0.0000000000000000E+000  0.0000000000000000E+000
           0.0000000000000000E+000  0.0000000000000000E+000  0.0000000000000000E+000
           0.0000000000000000E+000  0.0000000000000000E+000  0.0000000000000000E+000
           0.0000000000000000E+000  0.0000000000000000E+000  0.0000000000000000E+000
       &END VELOCITY
     &END REPLICA
     &PROGRAM_RUN_INFO SILENT
     &END PROGRAM_RUN_INFO
     &CONVERGENCE_INFO SILENT
     &END CONVERGENCE_INFO
   &END BAND
   &PRINT
     &VELOCITIES OFF
     &END VELOCITIES
   &END PRINT
 &END MOTION
 &FORCE_EVAL
   METHOD FIST
   &MM
     &FORCEFIELD
       PARMTYPE CHM
       PARM_FILE_NAME ./amber/mol.pot
       &SPLINE
         R0_NB  5.2917720859000010E-005
         RCUT_NB  2.0000000000000004E+001
         EMAX_SPLINE  1.0000000000000000E+010
         EMAX_ACCURACY  5.0000000000000000E+002
         EPS_SPLINE  9.9999999999999995E-007
       &END SPLINE
     &END FORCEFIELD
     &POISSON
       &EWALD
         EWALD_TYPE EWALD
         ALPHA  3.5999999999999999E-001
         GMAX 29
       &END EWALD
     &END POISSON
     &PRINT
       &FF_INFO SILENT
         SPLINE_INFO T
       &END FF_INFO
     &END PRINT
   &END MM
   &SUBSYS
     &CELL
       A  3.0000000000000007E+001  0.0000000000000000E+000  0.0000000000000000E+000
       B  0.0000000000000000E+000  3.0000000000000007E+001  0.0000000000000000E+000
       C  0.0000000000000000E+000  0.0000000000000000E+000  3.0000000000000007E+001
       MULTIPLE_UNIT_CELL 1 1 1
     &END CELL
     &COORD
       N3  3.3290000000000006E+000  1.5780000000000003E+000 -2.8199999999999997E-001
       H11  4.0149999999999997E+000  9.6499999999999997E-001 -7.0000000000000007E-001
       H11  2.6180000000000003E+000  1.7849999999999999E+000 -9.6900000000000008E-001
       H11  3.0670000000000002E+000  1.2050000000000001E+000  6.1899999999999999E-001
       CT1  3.9700000000000006E+000  2.8460000000000001E+000  0.0000000000000000E+000
       HP  3.6899999999999999E+000  3.5730000000000000E+000 -7.6200000000000001E-001
       HP  3.6509999999999998E+000  3.2050000000000001E+000  9.7899999999999998E-001
       C1  5.4840000000000000E+000  2.6870000000000003E+000  0.0000000000000000E+000
       O  5.9930000000000012E+000  1.5680000000000001E+000  0.0000000000000000E+000
       N  6.2030000000000012E+000  3.8110000000000004E+000  0.0000000000000000E+000
       H2  5.7450000000000001E+000  4.7030000000000003E+000 -1.2200000000000000E-001
       CT2  7.6420000000000003E+000  3.7999999999999998E+000  1.7100000000000001E-001
       H12  7.8830000000000000E+000  3.5540000000000003E+000  1.2050000000000001E+000
       H12  8.0809999999999995E+000  3.0550000000000006E+000 -4.9200000000000005E-001
       C2  8.2270000000000003E+000  5.1660000000000013E+000 -1.6200000000000003E-001
       O2  7.5410000000000004E+000  6.0170000000000003E+000 -7.2399999999999998E-001
       O2  9.3910000000000018E+000  5.4320000000000004E+000  1.2600000000000000E-001
     &END COORD
     &TOPOLOGY
       CHARGE_BETA T
       COORD_FILE_NAME ./amber/mol.pdb
       COORD_FILE_FORMAT PDB
       NUMBER_OF_ATOMS 17
       CONN_FILE_NAME ./amber/mol.psf
       CONN_FILE_FORMAT UPSF
       MULTIPLE_UNIT_CELL 1 1 1
     &END TOPOLOGY
   &END SUBSYS
 &END FORCE_EVAL
