 # Version information for this restart file 
 # current date 2026-04-22 11:54:42.079
 # current working dir /DATA/lab07/hglee/cp2k_agent/test/level7
 # Program compiled at                                       2026-03-01 16:41:12
 # Program compiled on                                                    master
 # Program compiled for                                                   x86_64
 # Source code revision number                                       git:5e54ba2
 &GLOBAL
   PRINT_LEVEL LOW
   PROJECT_NAME "2gly_B-NEB-r-0"
   OUTPUT_FILE_NAME 2gly_B-NEB-r-0.out
   RUN_TYPE BAND
 &END GLOBAL
 &MOTION
   &BAND
     NPROC_REP 1
     BAND_TYPE B-NEB
     NUMBER_OF_REPLICA 5
     ROTATE_FRAMES T
     K_SPRING  5.0000000000000003E-002
     &CONVERGENCE_CONTROL
       MAX_FORCE  1.0000000000000000E-003
       RMS_FORCE  5.0000000000000001E-004
     &END CONVERGENCE_CONTROL
     &OPTIMIZE_BAND
       OPT_TYPE MD
       &MD
         MAX_STEPS 20
         TIMESTEP  4.9999999999999994E-001
         TEMPERATURE  1.0000000000000001E+002
         &VEL_CONTROL
           ANNEALING  9.4999999999999996E-001
           PROJ_VELOCITY_VERLET T
         &END VEL_CONTROL
       &END MD
     &END OPTIMIZE_BAND
     &REPLICA
       &COORD
           3.3290000000000006E+000  1.5780000000000003E+000 -2.8199999999999997E-001
           4.0149999999999997E+000  9.6499999999999997E-001 -7.0000000000000007E-001
           2.6180000000000003E+000  1.7849999999999999E+000 -9.6900000000000008E-001
           3.0670000000000002E+000  1.2050000000000001E+000  6.1899999999999999E-001
           3.9700000000000006E+000  2.8460000000000001E+000 -0.0000000000000000E+000
           3.6899999999999999E+000  3.5730000000000000E+000 -7.6200000000000001E-001
           3.6509999999999998E+000  3.2050000000000001E+000  9.7899999999999998E-001
           5.4840000000000000E+000  2.6870000000000003E+000  0.0000000000000000E+000
           5.9930000000000012E+000  1.5680000000000001E+000  0.0000000000000000E+000
           6.2030000000000012E+000  3.8110000000000004E+000  0.0000000000000000E+000
           5.7450000000000001E+000  4.7030000000000003E+000 -1.2200000000000000E-001
           7.6420000000000003E+000  3.7999999999999998E+000  1.7100000000000001E-001
           7.8830000000000000E+000  3.5540000000000003E+000  1.2050000000000001E+000
           8.0809999999999995E+000  3.0550000000000006E+000 -4.9200000000000005E-001
           8.2270000000000003E+000  5.1660000000000013E+000 -1.6200000000000003E-001
           7.5410000000000004E+000  6.0170000000000003E+000 -7.2399999999999998E-001
           9.3910000000000018E+000  5.4320000000000004E+000  1.2600000000000000E-001
       &END COORD
       &VELOCITY
           0.0000000000000000E+000  0.0000000000000000E+000  0.0000000000000000E+000
           0.0000000000000000E+000  0.0000000000000000E+000  0.0000000000000000E+000
           0.0000000000000000E+000  0.0000000000000000E+000  0.0000000000000000E+000
           0.0000000000000000E+000  0.0000000000000000E+000  0.0000000000000000E+000
           0.0000000000000000E+000  0.0000000000000000E+000  0.0000000000000000E+000
           0.0000000000000000E+000  0.0000000000000000E+000  0.0000000000000000E+000
           0.0000000000000000E+000  0.0000000000000000E+000  0.0000000000000000E+000
           0.0000000000000000E+000  0.0000000000000000E+000  0.0000000000000000E+000
           0.0000000000000000E+000  0.0000000000000000E+000  0.0000000000000000E+000
           0.0000000000000000E+000  0.0000000000000000E+000  0.0000000000000000E+000
           0.0000000000000000E+000  0.0000000000000000E+000  0.0000000000000000E+000
           0.0000000000000000E+000  0.0000000000000000E+000  0.0000000000000000E+000
           0.0000000000000000E+000  0.0000000000000000E+000  0.0000000000000000E+000
           0.0000000000000000E+000  0.0000000000000000E+000  0.0000000000000000E+000
           0.0000000000000000E+000  0.0000000000000000E+000  0.0000000000000000E+000
           0.0000000000000000E+000  0.0000000000000000E+000  0.0000000000000000E+000
           0.0000000000000000E+000  0.0000000000000000E+000  0.0000000000000000E+000
       &END VELOCITY
     &END REPLICA
     &REPLICA
       &COORD
           3.4434441007187968E+000  1.9695775533757129E+000 -7.9401791239259589E-001
           3.4642724351214036E+000  1.8225675956402365E+000 -1.7929554744116785E+000
           3.3554502328967621E+000  2.9588853076589277E+000 -6.1284328243347863E-001
           2.7870617684743770E+000  1.3204539782913838E+000 -3.8415718215961092E-001
           4.7365140777728731E+000  1.5962750648604098E+000 -2.5622586474810605E-001
           4.5969838432661962E+000  9.5134841694181005E-001  6.1081677114876332E-001
           5.3075279916232621E+000  1.0646422077874220E+000 -1.0176722617253808E+000
           5.5121315000866096E+000  2.8355080594946198E+000  1.6826936398047015E-001
           5.1778166488893431E+000  3.4676584271913904E+000  1.1682001080271713E+000
           6.5503618210375931E+000  3.1813984356925982E+000 -5.9512741903059174E-001
           6.4468552354577877E+000  3.2249881524385540E+000 -1.5990239890693674E+000
           7.8446612948640642E+000  3.5025150222161301E+000 -2.8462606366175345E-002
           7.8648314399137957E+000  3.2101060689276077E+000  1.0211616927453617E+000
           8.6228384808274097E+000  2.9644419988428545E+000 -5.7113994029870019E-001
           8.1131502930916781E+000  4.9973264321935105E+000 -1.3090042375883224E-001
           7.5045088988404380E+000  5.7907621886768954E+000  5.8335048001206780E-001
           8.9423238570046397E+000  5.4287470094972345E+000 -9.2916634836466216E-001
       &END COORD
       &VELOCITY
          -6.0162865320793356E-005  4.1406519674225306E-005  6.7769748201234176E-007
           8.0274489607801524E-005 -1.9548061119921271E-005 -9.0522591756550579E-005
          -1.1300286251501194E-004  1.1693432647171543E-004  1.7951206015696982E-005
           8.2533835025913911E-005 -4.1695540445242669E-005  2.6531773272415706E-004
          -1.8638552689048064E-004 -2.0280999315525324E-005 -1.2499934881233892E-004
           2.1990258379246547E-004 -1.9124488889800908E-005 -1.4707245322537077E-004
          -4.4406970585706942E-004 -6.3332847899799129E-005 -3.3944790417775759E-005
          -1.7589387205993760E-004  1.0185221781587399E-004 -1.5771087988768022E-004
           2.2190264143304438E-004  1.3338637667038562E-004  1.4512273786849243E-004
           7.2277120896407901E-005 -2.6110898537136168E-004  1.6550149226163326E-005
           4.4631579955553938E-005 -1.3977064072843046E-005 -5.4469785883041779E-005
          -2.7126015399425523E-004 -5.9169735591799131E-005  3.6125886198660228E-005
          -2.0937925187005651E-004 -1.7401344072996696E-005 -1.1934978740724159E-004
          -2.4268739579436283E-005  1.7619092783676009E-004  8.5436366625013768E-005
          -1.1707562297063310E-004  6.9514738357388616E-005  9.8983840303156943E-005
           3.1015451554821169E-004  1.5305390416074944E-004  1.2892738352267221E-004
           4.3658632902483312E-005 -1.7049481508472076E-004 -1.7351341919300345E-004
       &END VELOCITY
     &END REPLICA
     &REPLICA
       &COORD
           4.6738504722323428E+000  1.1780153388541645E+000 -2.8057186365042636E-001
           3.9633555848241020E+000  5.8551017027528263E-001  1.2251080798662535E-001
           5.5648054043891033E+000  7.0558349287506728E-001 -2.1983094029289058E-001
           4.3435148802912611E+000  1.5221063722248798E+000 -1.1708334866864916E+000
           4.8075315280751463E+000  2.3537070682060373E+000  5.5669591480659508E-001
           3.8384507576208673E+000  2.6055393537345837E+000  9.8658538932441875E-001
           5.5192051226991099E+000  2.1516273074259891E+000  1.3565024320331585E+000
           5.3075704222695705E+000  3.5349104471541910E+000 -2.6318010134114139E-001
           4.8240725547372616E+000  4.6537640013783275E+000 -1.0305972071541031E-001
           6.2785707610670887E+000  3.2833870764094355E+000 -1.1430842643181673E+000
           6.0461168253974416E+000  3.0460717815205434E+000 -2.0977342622773612E+000
           7.6793318735024698E+000  3.3385548441525925E+000 -7.7572092470596221E-001
           7.9487984087133094E+000  2.4314673232043398E+000 -2.3484292021565320E-001
           8.2874939885788557E+000  3.4200090001733554E+000 -1.6762258176703269E+000
           7.9476402807002220E+000  4.5434371959628050E+000  1.1425723060084009E-001
           8.6837604754654691E+000  4.4437119273442125E+000  1.0940857511378397E+000
           7.4328534463951792E+000  5.6298561513430387E+000 -1.3682914620347134E-001
       &END COORD
       &VELOCITY
           4.1709541471555847E-004  2.3060004011367220E-004 -8.2438136706861393E-005
          -2.9650873465037424E-004 -1.8034014837111235E-004  1.0679279530923251E-004
          -4.0537576187252462E-004  2.5726657235071421E-004 -3.4778336924669945E-005
          -1.2023252882804693E-004  4.7481198948911765E-004  1.9010316250609458E-004
          -8.1835949586737931E-006 -3.0701629707564284E-008  5.9217061139959021E-005
          -3.5183639075053388E-004  5.5990922293354391E-005  1.0039392592567631E-004
           2.8405534630989016E-005  9.7621780174520046E-005 -2.9541242331530853E-004
          -1.3027241449552538E-004 -1.7591902694788215E-004 -5.8080947700584342E-005
          -1.3957837866727775E-004 -3.8890748498168979E-005 -2.4065179795643581E-005
           4.7569928130246755E-005 -7.5695922244002696E-005  4.7199100365473107E-005
          -3.9035303377572990E-004 -3.0921145220936988E-004  5.0766916656489471E-005
          -7.4848710993137519E-005 -5.0409696742041989E-005 -1.5468126600565898E-004
           1.2505319565396083E-004  1.2587856389375458E-004 -3.9883226139634322E-004
           9.5089381943180341E-005  4.0171453373538056E-004  6.6490204351856788E-005
          -3.6430754692249202E-004  8.9608010755975805E-006 -1.8530627589228460E-005
           1.3232956899092037E-004 -4.5779002796492343E-005  1.4125241827246944E-004
           1.1683920231336895E-004  5.4021511442759376E-005  5.6345314262713180E-005
       &END VELOCITY
     &END REPLICA
     &REPLICA
       &COORD
           6.1539523200576571E+000  1.8656792794941768E+000  4.1391306476051165E-001
           6.0494851496716446E+000  2.5064625837607837E+000  1.1847968370564055E+000
           7.1455659698585441E+000  1.8821888789642669E+000  1.9083404073680049E-001
           5.8161014588986939E+000  9.4627353893694455E-001  6.2370412369218997E-001
           5.4544056727667067E+000  2.4618505749774120E+000 -7.1361782345012070E-001
           6.1273264419756401E+000  2.4974740577468046E+000 -1.5715881475928861E+000
           4.5977395940326140E+000  1.8361762054510320E+000 -9.6023321141647311E-001
           4.9704644857019735E+000  3.8756547450827696E+000 -3.8186122907588804E-001
           3.7785288669545793E+000  4.0860753306904201E+000 -5.8826186170468497E-001
           5.7089005172984422E+000  4.8752672011291223E+000  1.4131986492792833E-001
           5.3088907711407005E+000  5.7973398565284286E+000  8.8906523116886724E-002
           7.0360276040708838E+000  4.8919115075455473E+000  7.2450996286987313E-001
           7.4266854696786240E+000  5.9091519051230703E+000  6.8532306252567110E-001
           6.9493124789820389E+000  4.6050430794543704E+000  1.7742837850773372E+000
           7.9645529628984519E+000  3.9624605691724666E+000 -1.9456493612653697E-002
           8.4770022786531758E+000  3.0621640984693212E+000  6.7332849194527622E-001
           7.8793340008433805E+000  3.9169594011120177E+000 -1.2586055876892401E+000
       &END COORD
       &VELOCITY
           1.9911138931927259E-004 -1.8613174005009515E-004  8.2505125540960464E-005
           8.0163279699751002E-005  4.2490592242093992E-004  5.5218231986705486E-005
          -1.0817740264821067E-005  3.5683616002575660E-005 -9.8881967045283522E-005
          -3.2910797594678024E-004 -4.2470564540347451E-005 -4.7635200733507041E-004
          -1.8739604220558632E-004 -1.7200532835969038E-004 -1.8429239746367172E-004
           2.1868208506660989E-004 -2.7690117540332404E-005 -2.4946908397224479E-004
           3.2834378515466582E-004 -7.8371112962629457E-005  1.1996643003843928E-004
           1.9176660172987004E-005 -1.1231765369227595E-005  1.2869626177045812E-004
           3.7716747999747864E-005 -7.6381705687337992E-005 -2.1623694817971185E-004
          -1.2127547740206145E-004  1.4895416219985221E-004  6.9350275604606335E-005
           7.1503829925455626E-005 -2.0106179399687239E-004 -1.1704947468913583E-004
          -6.0992261057101780E-005  4.7699106897020144E-005 -2.1725299463459187E-004
           1.7312540648290535E-004 -1.4584676122754065E-004  1.1726847676660919E-005
          -2.0871987707163375E-004  1.9361197259119077E-004 -4.1234933243191208E-004
          -2.2535621216647028E-006 -1.5244277487022606E-004  1.1665724651771402E-004
          -1.7020342608488353E-004  1.6155705660755927E-004  1.0243992254503422E-004
           2.1771529141250155E-004  1.5354187181049425E-004  1.7160316520516687E-004
       &END VELOCITY
     &END REPLICA
     &REPLICA
       &COORD
           3.5805017600142919E+000  1.4577026446873498E+000 -6.6237405451723312E-003
           2.9827667695723221E+000  2.2286986432128320E+000 -2.6999999509184547E-001
           3.4304541468183878E+000  1.2499784748194571E+000  9.7005961808591878E-001
           3.4902769433282623E+000  7.2683188107338537E-001 -6.9801828011596811E-001
           4.9560511987179936E+000  1.9026458571754383E+000 -9.6725235220418995E-002
           5.5158526769675564E+000  1.5298157392003615E+000  7.6158881457737837E-001
           5.4027270835671883E+000  1.5213331251191264E+000 -1.0146872465618149E+000
           5.0222891104485257E+000  3.4234846803521282E+000 -1.0850712675447698E-001
           4.0299259734941320E+000  4.0925797445308021E+000  1.7215138372716834E-001
           6.1959409534939827E+000  3.9680978666562239E+000 -4.3450533015398035E-001
           6.2429197685678348E+000  4.6690446938808323E+000 -1.1610502608623381E+000
           7.4283525727628570E+000  3.5853510777222417E+000  2.2516769207127296E-001
           7.2789895892608190E+000  3.5936234441977830E+000  1.3054224153251295E+000
           7.7152619727758900E+000  2.5845804744619083E+000 -9.5282297527900767E-002
           8.5442522897836195E+000  4.5579996630172506E+000 -1.2846000915786152E-001
           8.2897955270695363E+000  5.6200975203275716E+000 -6.9220897581402718E-001
           9.7114043199995130E+000  4.2931706699113601E+000  1.4708988246513227E-001
       &END COORD
       &VELOCITY
           0.0000000000000000E+000  0.0000000000000000E+000  0.0000000000000000E+000
           0.0000000000000000E+000  0.0000000000000000E+000  0.0000000000000000E+000
           0.0000000000000000E+000  0.0000000000000000E+000  0.0000000000000000E+000
           0.0000000000000000E+000  0.0000000000000000E+000  0.0000000000000000E+000
           0.0000000000000000E+000  0.0000000000000000E+000  0.0000000000000000E+000
           0.0000000000000000E+000  0.0000000000000000E+000  0.0000000000000000E+000
           0.0000000000000000E+000  0.0000000000000000E+000  0.0000000000000000E+000
           0.0000000000000000E+000  0.0000000000000000E+000  0.0000000000000000E+000
           0.0000000000000000E+000  0.0000000000000000E+000  0.0000000000000000E+000
           0.0000000000000000E+000  0.0000000000000000E+000  0.0000000000000000E+000
           0.0000000000000000E+000  0.0000000000000000E+000  0.0000000000000000E+000
           0.0000000000000000E+000  0.0000000000000000E+000  0.0000000000000000E+000
           0.0000000000000000E+000  0.0000000000000000E+000  0.0000000000000000E+000
           0.0000000000000000E+000  0.0000000000000000E+000  0.0000000000000000E+000
           0.0000000000000000E+000  0.0000000000000000E+000  0.0000000000000000E+000
           0.0000000000000000E+000  0.0000000000000000E+000  0.0000000000000000E+000
           0.0000000000000000E+000  0.0000000000000000E+000  0.0000000000000000E+000
       &END VELOCITY
     &END REPLICA
     &PROGRAM_RUN_INFO SILENT
     &END PROGRAM_RUN_INFO
     &CONVERGENCE_INFO SILENT
     &END CONVERGENCE_INFO
   &END BAND
   &PRINT
     &VELOCITIES OFF
     &END VELOCITIES
   &END PRINT
 &END MOTION
 &FORCE_EVAL
   METHOD FIST
   &MM
     &FORCEFIELD
       PARMTYPE CHM
       PARM_FILE_NAME ./amber/mol.pot
       &SPLINE
         R0_NB  5.2917720859000010E-005
         RCUT_NB  2.0000000000000004E+001
         EMAX_SPLINE  1.0000000000000000E+010
         EMAX_ACCURACY  5.0000000000000000E+002
         EPS_SPLINE  9.9999999999999995E-007
       &END SPLINE
     &END FORCEFIELD
     &POISSON
       &EWALD
         EWALD_TYPE EWALD
         ALPHA  3.5999999999999999E-001
         GMAX 29
       &END EWALD
     &END POISSON
     &PRINT
       &FF_INFO SILENT
         SPLINE_INFO T
       &END FF_INFO
     &END PRINT
   &END MM
   &SUBSYS
     &CELL
       A  3.0000000000000007E+001  0.0000000000000000E+000  0.0000000000000000E+000
       B  0.0000000000000000E+000  3.0000000000000007E+001  0.0000000000000000E+000
       C  0.0000000000000000E+000  0.0000000000000000E+000  3.0000000000000007E+001
       MULTIPLE_UNIT_CELL 1 1 1
     &END CELL
     &COORD
       N3  3.3290000000000006E+000  1.5780000000000003E+000 -2.8199999999999997E-001
       H11  4.0149999999999997E+000  9.6499999999999997E-001 -7.0000000000000007E-001
       H11  2.6180000000000003E+000  1.7849999999999999E+000 -9.6900000000000008E-001
       H11  3.0670000000000002E+000  1.2050000000000001E+000  6.1899999999999999E-001
       CT1  3.9700000000000006E+000  2.8460000000000001E+000 -0.0000000000000000E+000
       HP  3.6899999999999999E+000  3.5730000000000000E+000 -7.6200000000000001E-001
       HP  3.6509999999999998E+000  3.2050000000000001E+000  9.7899999999999998E-001
       C1  5.4840000000000000E+000  2.6870000000000003E+000  0.0000000000000000E+000
       O  5.9930000000000012E+000  1.5680000000000001E+000  0.0000000000000000E+000
       N  6.2030000000000012E+000  3.8110000000000004E+000  0.0000000000000000E+000
       H2  5.7450000000000001E+000  4.7030000000000003E+000 -1.2200000000000000E-001
       CT2  7.6420000000000003E+000  3.7999999999999998E+000  1.7100000000000001E-001
       H12  7.8830000000000000E+000  3.5540000000000003E+000  1.2050000000000001E+000
       H12  8.0809999999999995E+000  3.0550000000000006E+000 -4.9200000000000005E-001
       C2  8.2270000000000003E+000  5.1660000000000013E+000 -1.6200000000000003E-001
       O2  7.5410000000000004E+000  6.0170000000000003E+000 -7.2399999999999998E-001
       O2  9.3910000000000018E+000  5.4320000000000004E+000  1.2600000000000000E-001
     &END COORD
     &TOPOLOGY
       CHARGE_BETA T
       COORD_FILE_NAME ./amber/mol.pdb
       COORD_FILE_FORMAT PDB
       NUMBER_OF_ATOMS 17
       CONN_FILE_NAME ./amber/mol.psf
       CONN_FILE_FORMAT UPSF
       MULTIPLE_UNIT_CELL 1 1 1
     &END TOPOLOGY
   &END SUBSYS
 &END FORCE_EVAL
