 # Version information for this restart file 
 # current date 2026-04-22 11:54:42.111
 # current working dir /DATA/lab07/hglee/cp2k_agent/test/level7
 # Program compiled at                                       2026-03-01 16:41:12
 # Program compiled on                                                    master
 # Program compiled for                                                   x86_64
 # Source code revision number                                       git:5e54ba2
 &GLOBAL
   PRINT_LEVEL LOW
   PROJECT_NAME "2gly_B-NEB-r-0"
   OUTPUT_FILE_NAME 2gly_B-NEB-r-0.out
   RUN_TYPE BAND
 &END GLOBAL
 &MOTION
   &BAND
     NPROC_REP 1
     BAND_TYPE B-NEB
     NUMBER_OF_REPLICA 5
     ROTATE_FRAMES T
     K_SPRING  5.0000000000000003E-002
     &CONVERGENCE_CONTROL
       MAX_FORCE  1.0000000000000000E-003
       RMS_FORCE  5.0000000000000001E-004
     &END CONVERGENCE_CONTROL
     &OPTIMIZE_BAND
       OPT_TYPE MD
       &MD
         MAX_STEPS 20
         TIMESTEP  4.9999999999999994E-001
         TEMPERATURE  1.0000000000000001E+002
         &VEL_CONTROL
           ANNEALING  9.4999999999999996E-001
           PROJ_VELOCITY_VERLET T
         &END VEL_CONTROL
       &END MD
     &END OPTIMIZE_BAND
     &REPLICA
       &COORD
           3.3290000000000006E+000  1.5780000000000003E+000 -2.8199999999999997E-001
           4.0149999999999997E+000  9.6499999999999997E-001 -7.0000000000000007E-001
           2.6180000000000003E+000  1.7849999999999999E+000 -9.6900000000000008E-001
           3.0670000000000002E+000  1.2050000000000001E+000  6.1899999999999999E-001
           3.9700000000000006E+000  2.8460000000000001E+000  0.0000000000000000E+000
           3.6899999999999999E+000  3.5730000000000000E+000 -7.6200000000000001E-001
           3.6509999999999998E+000  3.2050000000000001E+000  9.7899999999999998E-001
           5.4840000000000000E+000  2.6870000000000003E+000  0.0000000000000000E+000
           5.9930000000000012E+000  1.5680000000000001E+000  0.0000000000000000E+000
           6.2030000000000012E+000  3.8110000000000004E+000  0.0000000000000000E+000
           5.7450000000000001E+000  4.7030000000000003E+000 -1.2200000000000000E-001
           7.6420000000000003E+000  3.7999999999999998E+000  1.7100000000000001E-001
           7.8830000000000000E+000  3.5540000000000003E+000  1.2050000000000001E+000
           8.0809999999999995E+000  3.0550000000000006E+000 -4.9200000000000005E-001
           8.2270000000000003E+000  5.1660000000000013E+000 -1.6200000000000003E-001
           7.5410000000000004E+000  6.0170000000000003E+000 -7.2399999999999998E-001
           9.3910000000000018E+000  5.4320000000000004E+000  1.2600000000000000E-001
       &END COORD
       &VELOCITY
           0.0000000000000000E+000  0.0000000000000000E+000  0.0000000000000000E+000
           0.0000000000000000E+000  0.0000000000000000E+000  0.0000000000000000E+000
           0.0000000000000000E+000  0.0000000000000000E+000  0.0000000000000000E+000
           0.0000000000000000E+000  0.0000000000000000E+000  0.0000000000000000E+000
           0.0000000000000000E+000  0.0000000000000000E+000  0.0000000000000000E+000
           0.0000000000000000E+000  0.0000000000000000E+000  0.0000000000000000E+000
           0.0000000000000000E+000  0.0000000000000000E+000  0.0000000000000000E+000
           0.0000000000000000E+000  0.0000000000000000E+000  0.0000000000000000E+000
           0.0000000000000000E+000  0.0000000000000000E+000  0.0000000000000000E+000
           0.0000000000000000E+000  0.0000000000000000E+000  0.0000000000000000E+000
           0.0000000000000000E+000  0.0000000000000000E+000  0.0000000000000000E+000
           0.0000000000000000E+000  0.0000000000000000E+000  0.0000000000000000E+000
           0.0000000000000000E+000  0.0000000000000000E+000  0.0000000000000000E+000
           0.0000000000000000E+000  0.0000000000000000E+000  0.0000000000000000E+000
           0.0000000000000000E+000  0.0000000000000000E+000  0.0000000000000000E+000
           0.0000000000000000E+000  0.0000000000000000E+000  0.0000000000000000E+000
           0.0000000000000000E+000  0.0000000000000000E+000  0.0000000000000000E+000
       &END VELOCITY
     &END REPLICA
     &REPLICA
       &COORD
           3.4458045680247502E+000  1.9663298624816092E+000 -7.9638901102803783E-001
           3.4704366615491837E+000  1.8160155639515070E+000 -1.7935688874465607E+000
           3.3558884104964428E+000  2.9564157383959060E+000 -6.1504176998161475E-001
           2.7883298583441096E+000  1.3226198369431619E+000 -3.8351977373855589E-001
           4.7361835228261944E+000  1.5952367768572115E+000 -2.5426636347565651E-001
           4.5978315333743520E+000  9.5247455660670044E-001  6.1632028243071402E-001
           5.3075671374439075E+000  1.0585314756064341E+000 -1.0110184940539928E+000
           5.5100517367189257E+000  2.8383075437991980E+000  1.6707256081752081E-001
           5.1761078773719129E+000  3.4733420262855810E+000  1.1670744143312008E+000
           6.5522429170292282E+000  3.1770624383020607E+000 -5.9298409247509909E-001
           6.4563995783312027E+000  3.2174409231762953E+000 -1.5988805618805233E+000
           7.8418054312668506E+000  3.5029741062075614E+000 -2.3604977903381851E-002
           7.8601168709460350E+000  3.2133016696942800E+000  1.0250548798825299E+000
           8.6238374117168153E+000  2.9649758172623395E+000 -5.6210346670174982E-001
           8.1116638474001128E+000  4.9987784508877358E+000 -1.3013316497983585E-001
           7.5042020539127465E+000  5.7948557128206772E+000  5.8079070254991316E-001
           8.9447752255007860E+000  5.4238402970145634E+000 -9.3152863564034649E-001
       &END COORD
       &VELOCITY
           8.1060163433779341E-005 -4.5298984773491965E-005 -5.2869326411507264E-005
           6.3050447115764617E-006  2.1090592224372024E-005  4.5590032261940144E-005
           1.0992883475502405E-005 -4.2377567146719559E-005  1.1859225372284976E-004
          -3.2636647612867918E-005  1.4553216712801827E-004 -3.0692331175879550E-005
           8.0242102887750059E-005  3.0533148119700841E-006  1.5665988879145453E-005
          -1.2827658524856459E-006 -3.2254484433100872E-005  6.1479796463052302E-005
           5.5026251408132219E-005 -6.3777079025802784E-005  1.1325725049919091E-005
           3.4245932634991169E-005  9.1748510857984743E-005 -2.1372315273541680E-005
          -5.7665399179426795E-005 -3.2057387728448599E-005  6.3475660327143220E-006
          -3.2415391460035056E-005  1.2891795854903254E-005 -3.7325064667627962E-005
           1.6344357090940703E-004 -7.0944742441066502E-005 -4.0400062324180470E-005
           1.9697996395068465E-005  3.4484269104180255E-005 -2.0562915280924586E-005
           1.8843250609019599E-005 -4.7790948503846403E-005 -2.4375284936746438E-005
          -6.7818122014634589E-006 -5.5041226315814390E-006 -2.6352780141669701E-005
           3.3835357080083300E-006  3.3062101142428169E-005 -4.1742725144857522E-006
          -1.2530784735963489E-004 -5.9158011043238554E-005  1.2600854806768525E-004
           1.5454022415598672E-005 -9.2600660816666254E-005 -1.2847078324240845E-004
       &END VELOCITY
     &END REPLICA
     &REPLICA
       &COORD
           4.6820173743786686E+000  1.1773248007428350E+000 -2.6886489571119015E-001
           3.9754600397047630E+000  5.8802638302781518E-001  1.5106022410400707E-001
           5.5865049182965540E+000  6.9781500672310703E-001 -2.0567580528504426E-001
           4.3714960663615718E+000  1.5170445379899922E+000 -1.1642860505665571E+000
           4.8050194783609932E+000  2.3620747882904385E+000  5.5780609766319100E-001
           3.8354963509123210E+000  2.6262770378383555E+000  9.6965367151004489E-001
           5.5081719825997952E+000  2.1693146672157262E+000  1.3654404690532671E+000
           5.3072264402811067E+000  3.5358669444042174E+000 -2.7004261723518447E-001
           4.8186222733949080E+000  4.6537347308290649E+000 -1.2290044325860792E-001
           6.2826703555317058E+000  3.2784149749348299E+000 -1.1407867053819547E+000
           6.0485457503273556E+000  3.0464579105834360E+000 -2.0876249253086465E+000
           7.6803578657940283E+000  3.3358913529111205E+000 -7.6812355948036404E-001
           7.9489002025961515E+000  2.4430962259071594E+000 -2.2809626767042884E-001
           8.2870625796242923E+000  3.4232634074287001E+000 -1.6554860939518685E+000
           7.9437572186556604E+000  4.5438523038704659E+000  1.1758908715415983E-001
           8.6821150546812245E+000  4.4419661192649658E+000  1.1030310655991964E+000
           7.4303531883787048E+000  5.6285453172196078E+000 -1.4705015731855886E-001
       &END COORD
       &VELOCITY
           5.7711949844105781E-004 -2.8008633953892153E-004  6.2300074794803323E-004
           8.0496578006160151E-004  8.6563188480654604E-005  9.9016364210050500E-004
           1.1210557790388204E-003 -3.8994297610233562E-004 -2.0409450612093312E-006
           1.1562596289986186E-003 -1.7041220112061170E-004  7.7017692435167741E-005
           1.8261815322522068E-004  4.0022888798038424E-004  5.2895689741451448E-005
           2.8512007423630523E-004  6.0778052982458724E-004 -5.2929566303693248E-004
          -1.7021222763248284E-004  3.4064556678531523E-004  3.4530587924964874E-004
           7.1885740039107136E-006  3.9335730050019742E-004 -8.9633282612481134E-005
          -5.2055037337383049E-004  3.4001153069596605E-005 -4.9615176953312257E-004
          -1.9153778737172940E-004  3.4004923083885848E-004  8.9721144409866285E-005
          -2.0442694814082349E-004  8.2806390449897190E-004  2.9953425176058624E-004
          -2.2576577008107495E-004  3.4326851481219557E-004  1.0496443498324684E-004
          -6.4462016012221165E-005  5.1715505895533426E-004 -2.1323068978923017E-004
          -4.3576855827205804E-004  5.0492187252768170E-004  3.8790931262213903E-004
           7.4986844179687176E-005 -6.7670951293763131E-005  2.0689118937932928E-004
           3.4173563531865816E-004 -1.0083860393491609E-003  1.3740662426450201E-004
          -5.0361573475627374E-004 -1.7328656601521582E-004 -2.7278617088221936E-004
       &END VELOCITY
     &END REPLICA
     &REPLICA
       &COORD
           6.1520540379180506E+000  1.8689955535154337E+000  4.2981930130595408E-001
           6.0437956720706110E+000  2.5199168494374096E+000  1.1945609980124501E+000
           7.1458597343034507E+000  1.8840498405397121E+000  2.0890444948916798E-001
           5.8082911058618754E+000  9.5361959323039847E-001  6.4017323484796995E-001
           5.4553152601812274E+000  2.4554181291675721E+000 -7.0911808231274287E-001
           6.1342797021874915E+000  2.4852547995699839E+000 -1.5644483218374354E+000
           4.6037218168030885E+000  1.8292349538074870E+000 -9.4901945175996327E-001
           4.9723149744061619E+000  3.8739373485428930E+000 -3.9052234782526563E-001
           3.7821544653658306E+000  4.0827430100399109E+000 -6.0883063955942129E-001
           5.7073378507572405E+000  4.8790270234037019E+000  1.2662997590050309E-001
           5.3092907648076144E+000  5.7964525043011355E+000  6.0995982216271748E-002
           7.0319379093804972E+000  4.8995823897642383E+000  7.1363669558841203E-001
           7.4268762630895910E+000  5.9132388976277568E+000  6.6719703375234563E-001
           6.9387462354636558E+000  4.6257789092502000E+000  1.7624895376310461E+000
           7.9638795777423157E+000  3.9607490166766488E+000 -1.2680575664884253E-002
           8.4706960916225462E+000  3.0690456570224396E+000  6.9166716964756858E-001
           7.8871940878226185E+000  3.9071299266975785E+000 -1.2515454112154731E+000
       &END COORD
       &VELOCITY
           5.0825970750831182E-005  2.1921983692917526E-005 -3.7807746249794976E-005
           6.5244195297844358E-005 -1.5631273602129318E-004  3.3878531705805635E-005
           1.4390096884963355E-004 -3.9413573251167947E-005 -6.1237952087772292E-005
           7.7159617690253788E-005  1.9582656788443950E-005 -2.4183724382367470E-005
           5.9656574844141851E-005  5.1157250563190413E-005  6.6429112140090288E-005
          -1.1219739749061187E-004  7.4856210729029891E-005  1.4862224333319371E-005
          -3.6071534521654871E-005  2.3653759078322726E-005  1.3477956716549035E-004
           4.6246566424790386E-006 -1.6758842503905131E-006 -2.1647556573955006E-005
           4.1224832750167628E-005  2.9915417955669810E-005 -1.6407915614123160E-005
           1.8361696375862285E-005 -7.1352534386715424E-005 -2.8933941289209425E-005
          -4.5526311063033408E-005 -5.3133009904964836E-005 -3.7822462003923194E-005
           1.7314673639721100E-005  1.8144441236758718E-007 -5.9592821889224133E-005
           4.9949025644698908E-005 -4.0601187357387647E-005 -1.3450377817352186E-004
           5.0952953019537726E-005  8.1768418652040695E-005 -5.8069546439720203E-005
          -4.5108978747824746E-005  1.8799729037614600E-005  8.6837409169561902E-006
           2.2403538536209346E-005 -8.4645805484672682E-005  9.7562584826836940E-005
          -1.1505603989878547E-004  5.8258676630056831E-005 -3.6209344242162890E-005
       &END VELOCITY
     &END REPLICA
     &REPLICA
       &COORD
           3.5798447373988407E+000  1.4586664786783456E+000 -4.0264349804680225E-003
           2.9836512794389267E+000  2.2274340587718182E+000 -2.7722740218781122E-001
           3.4243115936105273E+000  1.2591734726078938E+000  9.7351434765333078E-001
           3.4934420422095784E+000  7.2200505874672127E-001 -6.8974031601858266E-001
           4.9559099719157933E+000  1.9027999499143036E+000 -9.0159646238981497E-002
           5.5108659704104568E+000  1.5371922192135350E+000  7.7438522072086935E-001
           5.4076946371261077E+000  1.5137634305460717E+000 -1.0023625857643135E+000
           5.0223240288200559E+000  3.4234840338228190E+000 -1.1436894182640346E-001
           4.0284527526127816E+000  4.0949432024282135E+000  1.5508322688982590E-001
           6.1978239360697405E+000  3.9653038426063603E+000 -4.3835700158440205E-001
           6.2489243384317801E+000  4.6601099137503859E+000 -1.1705006161709393E+000
           7.4264918457051756E+000  3.5880905549464841E+000  2.3140960212536626E-001
           7.2710787622851214E+000  3.6054580898887338E+000  1.3107024920453834E+000
           7.7151191833369301E+000  2.5846509989871103E+000 -7.8993873221900962E-002
           8.5444266392308013E+000  4.5576995668472522E+000 -1.2413246495761444E-001
           8.2932103920379880E+000  5.6150218105642908E+000 -6.9821701455595353E-001
           9.7099969817543936E+000  4.2951687526901905E+000  1.6017256181374778E-001
       &END COORD
       &VELOCITY
           0.0000000000000000E+000  0.0000000000000000E+000  0.0000000000000000E+000
           0.0000000000000000E+000  0.0000000000000000E+000  0.0000000000000000E+000
           0.0000000000000000E+000  0.0000000000000000E+000  0.0000000000000000E+000
           0.0000000000000000E+000  0.0000000000000000E+000  0.0000000000000000E+000
           0.0000000000000000E+000  0.0000000000000000E+000  0.0000000000000000E+000
           0.0000000000000000E+000  0.0000000000000000E+000  0.0000000000000000E+000
           0.0000000000000000E+000  0.0000000000000000E+000  0.0000000000000000E+000
           0.0000000000000000E+000  0.0000000000000000E+000  0.0000000000000000E+000
           0.0000000000000000E+000  0.0000000000000000E+000  0.0000000000000000E+000
           0.0000000000000000E+000  0.0000000000000000E+000  0.0000000000000000E+000
           0.0000000000000000E+000  0.0000000000000000E+000  0.0000000000000000E+000
           0.0000000000000000E+000  0.0000000000000000E+000  0.0000000000000000E+000
           0.0000000000000000E+000  0.0000000000000000E+000  0.0000000000000000E+000
           0.0000000000000000E+000  0.0000000000000000E+000  0.0000000000000000E+000
           0.0000000000000000E+000  0.0000000000000000E+000  0.0000000000000000E+000
           0.0000000000000000E+000  0.0000000000000000E+000  0.0000000000000000E+000
           0.0000000000000000E+000  0.0000000000000000E+000  0.0000000000000000E+000
       &END VELOCITY
     &END REPLICA
     &PROGRAM_RUN_INFO SILENT
     &END PROGRAM_RUN_INFO
     &CONVERGENCE_INFO SILENT
     &END CONVERGENCE_INFO
   &END BAND
   &PRINT
     &VELOCITIES OFF
     &END VELOCITIES
   &END PRINT
 &END MOTION
 &FORCE_EVAL
   METHOD FIST
   &MM
     &FORCEFIELD
       PARMTYPE CHM
       PARM_FILE_NAME ./amber/mol.pot
       &SPLINE
         R0_NB  5.2917720859000010E-005
         RCUT_NB  2.0000000000000004E+001
         EMAX_SPLINE  1.0000000000000000E+010
         EMAX_ACCURACY  5.0000000000000000E+002
         EPS_SPLINE  9.9999999999999995E-007
       &END SPLINE
     &END FORCEFIELD
     &POISSON
       &EWALD
         EWALD_TYPE EWALD
         ALPHA  3.5999999999999999E-001
         GMAX 29
       &END EWALD
     &END POISSON
     &PRINT
       &FF_INFO SILENT
         SPLINE_INFO T
       &END FF_INFO
     &END PRINT
   &END MM
   &SUBSYS
     &CELL
       A  3.0000000000000007E+001  0.0000000000000000E+000  0.0000000000000000E+000
       B  0.0000000000000000E+000  3.0000000000000007E+001  0.0000000000000000E+000
       C  0.0000000000000000E+000  0.0000000000000000E+000  3.0000000000000007E+001
       MULTIPLE_UNIT_CELL 1 1 1
     &END CELL
     &COORD
       N3  3.3290000000000006E+000  1.5780000000000003E+000 -2.8199999999999997E-001
       H11  4.0149999999999997E+000  9.6499999999999997E-001 -7.0000000000000007E-001
       H11  2.6180000000000003E+000  1.7849999999999999E+000 -9.6900000000000008E-001
       H11  3.0670000000000002E+000  1.2050000000000001E+000  6.1899999999999999E-001
       CT1  3.9700000000000006E+000  2.8460000000000001E+000  0.0000000000000000E+000
       HP  3.6899999999999999E+000  3.5730000000000000E+000 -7.6200000000000001E-001
       HP  3.6509999999999998E+000  3.2050000000000001E+000  9.7899999999999998E-001
       C1  5.4840000000000000E+000  2.6870000000000003E+000  0.0000000000000000E+000
       O  5.9930000000000012E+000  1.5680000000000001E+000  0.0000000000000000E+000
       N  6.2030000000000012E+000  3.8110000000000004E+000  0.0000000000000000E+000
       H2  5.7450000000000001E+000  4.7030000000000003E+000 -1.2200000000000000E-001
       CT2  7.6420000000000003E+000  3.7999999999999998E+000  1.7100000000000001E-001
       H12  7.8830000000000000E+000  3.5540000000000003E+000  1.2050000000000001E+000
       H12  8.0809999999999995E+000  3.0550000000000006E+000 -4.9200000000000005E-001
       C2  8.2270000000000003E+000  5.1660000000000013E+000 -1.6200000000000003E-001
       O2  7.5410000000000004E+000  6.0170000000000003E+000 -7.2399999999999998E-001
       O2  9.3910000000000018E+000  5.4320000000000004E+000  1.2600000000000000E-001
     &END COORD
     &TOPOLOGY
       CHARGE_BETA T
       COORD_FILE_NAME ./amber/mol.pdb
       COORD_FILE_FORMAT PDB
       NUMBER_OF_ATOMS 17
       CONN_FILE_NAME ./amber/mol.psf
       CONN_FILE_FORMAT UPSF
       MULTIPLE_UNIT_CELL 1 1 1
     &END TOPOLOGY
   &END SUBSYS
 &END FORCE_EVAL
