 # Version information for this restart file 
 # current date 2026-04-22 11:54:42.090
 # current working dir /DATA/lab07/hglee/cp2k_agent/test/level7
 # Program compiled at                                       2026-03-01 16:41:12
 # Program compiled on                                                    master
 # Program compiled for                                                   x86_64
 # Source code revision number                                       git:5e54ba2
 &GLOBAL
   PRINT_LEVEL LOW
   PROJECT_NAME "2gly_B-NEB-r-0"
   OUTPUT_FILE_NAME 2gly_B-NEB-r-0.out
   RUN_TYPE BAND
 &END GLOBAL
 &MOTION
   &BAND
     NPROC_REP 1
     BAND_TYPE B-NEB
     NUMBER_OF_REPLICA 5
     ROTATE_FRAMES T
     K_SPRING  5.0000000000000003E-002
     &CONVERGENCE_CONTROL
       MAX_FORCE  1.0000000000000000E-003
       RMS_FORCE  5.0000000000000001E-004
     &END CONVERGENCE_CONTROL
     &OPTIMIZE_BAND
       OPT_TYPE MD
       &MD
         MAX_STEPS 20
         TIMESTEP  4.9999999999999994E-001
         TEMPERATURE  1.0000000000000001E+002
         &VEL_CONTROL
           ANNEALING  9.4999999999999996E-001
           PROJ_VELOCITY_VERLET T
         &END VEL_CONTROL
       &END MD
     &END OPTIMIZE_BAND
     &REPLICA
       &COORD
           3.3290000000000006E+000  1.5780000000000003E+000 -2.8199999999999997E-001
           4.0149999999999997E+000  9.6499999999999997E-001 -7.0000000000000007E-001
           2.6180000000000003E+000  1.7849999999999999E+000 -9.6900000000000008E-001
           3.0670000000000002E+000  1.2050000000000001E+000  6.1899999999999999E-001
           3.9700000000000006E+000  2.8460000000000001E+000  0.0000000000000000E+000
           3.6899999999999999E+000  3.5730000000000000E+000 -7.6200000000000001E-001
           3.6509999999999998E+000  3.2050000000000001E+000  9.7899999999999998E-001
           5.4840000000000000E+000  2.6870000000000003E+000  0.0000000000000000E+000
           5.9930000000000012E+000  1.5680000000000001E+000  0.0000000000000000E+000
           6.2030000000000012E+000  3.8110000000000004E+000  0.0000000000000000E+000
           5.7450000000000001E+000  4.7030000000000003E+000 -1.2200000000000000E-001
           7.6420000000000003E+000  3.7999999999999998E+000  1.7100000000000001E-001
           7.8830000000000000E+000  3.5540000000000003E+000  1.2050000000000001E+000
           8.0809999999999995E+000  3.0550000000000006E+000 -4.9200000000000005E-001
           8.2270000000000003E+000  5.1660000000000013E+000 -1.6200000000000003E-001
           7.5410000000000004E+000  6.0170000000000003E+000 -7.2399999999999998E-001
           9.3910000000000018E+000  5.4320000000000004E+000  1.2600000000000000E-001
       &END COORD
       &VELOCITY
           0.0000000000000000E+000  0.0000000000000000E+000  0.0000000000000000E+000
           0.0000000000000000E+000  0.0000000000000000E+000  0.0000000000000000E+000
           0.0000000000000000E+000  0.0000000000000000E+000  0.0000000000000000E+000
           0.0000000000000000E+000  0.0000000000000000E+000  0.0000000000000000E+000
           0.0000000000000000E+000  0.0000000000000000E+000  0.0000000000000000E+000
           0.0000000000000000E+000  0.0000000000000000E+000  0.0000000000000000E+000
           0.0000000000000000E+000  0.0000000000000000E+000  0.0000000000000000E+000
           0.0000000000000000E+000  0.0000000000000000E+000  0.0000000000000000E+000
           0.0000000000000000E+000  0.0000000000000000E+000  0.0000000000000000E+000
           0.0000000000000000E+000  0.0000000000000000E+000  0.0000000000000000E+000
           0.0000000000000000E+000  0.0000000000000000E+000  0.0000000000000000E+000
           0.0000000000000000E+000  0.0000000000000000E+000  0.0000000000000000E+000
           0.0000000000000000E+000  0.0000000000000000E+000  0.0000000000000000E+000
           0.0000000000000000E+000  0.0000000000000000E+000  0.0000000000000000E+000
           0.0000000000000000E+000  0.0000000000000000E+000  0.0000000000000000E+000
           0.0000000000000000E+000  0.0000000000000000E+000  0.0000000000000000E+000
           0.0000000000000000E+000  0.0000000000000000E+000  0.0000000000000000E+000
       &END VELOCITY
     &END REPLICA
     &REPLICA
       &COORD
           3.4423247173228568E+000  1.9704553017212587E+000 -7.9289146998037696E-001
           3.4633216700159033E+000  1.8245987040840868E+000 -1.7927285678066986E+000
           3.3537346087467177E+000  2.9600986754112881E+000 -6.0912849963835092E-001
           2.7878883849101426E+000  1.3205125187863658E+000 -3.8056804890574958E-001
           4.7348712639132238E+000  1.5959654406984149E+000 -2.5866411553391438E-001
           4.6007903735239468E+000  9.4941966670430755E-001  6.0760216263442757E-001
           5.3025028085567740E+000  1.0649184570850221E+000 -1.0207058678634826E+000
           5.5108535132486605E+000  2.8360203038015555E+000  1.6646209458617586E-001
           5.1817885848710130E+000  3.4666964753326615E+000  1.1710314298917719E+000
           6.5505344183026546E+000  3.1795362584239446E+000 -5.9592722498295969E-001
           6.4463130352860833E+000  3.2269697030813496E+000 -1.6005665314719384E+000
           7.8419674918204691E+000  3.5021295302551532E+000 -3.0226254374793399E-002
           7.8643144448824467E+000  3.2082066837317234E+000  1.0171276427893754E+000
           8.6220910532996555E+000  2.9674981546351433E+000 -5.7440666810273477E-001
           8.1115838590351554E+000  4.9985106854983030E+000 -1.2990883123984320E-001
           7.5080788091460731E+000  5.7914468862960913E+000  5.8680315083510126E-001
           8.9413078048667316E+000  5.4288328956021639E+000 -9.3149370949921362E-001
       &END COORD
       &VELOCITY
           5.1674472125791406E-006 -3.6176456145647698E-006 -4.1626658100214785E-006
           2.7888570361882608E-006  1.1523122429992257E-005  2.9347586700582897E-005
           3.3014336475457283E-007 -2.0059000061028489E-005  6.0760096790971980E-005
          -1.5642140932462837E-005  7.9348156655279962E-005 -1.4960633738954962E-005
           6.1257950697955576E-006  7.8061442149313114E-007  9.8319778898760144E-007
          -1.7647352391842092E-006 -1.8574514850653882E-005  3.2939217588322967E-005
           2.6763632961853444E-005 -3.2728553936129085E-005  3.0286722440389936E-006
           3.0433621446416955E-006  7.4208602791458751E-006 -1.5444772231710603E-006
          -3.3847519817535696E-006 -2.2708570114977612E-006  3.5594563064216732E-007
          -2.8017080770811718E-006  6.7024930537170397E-007 -2.3279901516568482E-006
           8.4823826116252118E-005 -3.2290890447699880E-005 -1.8970306751460634E-005
           1.6767690888315073E-006  2.9378179821636055E-006 -1.4861600378967761E-006
           9.3890560829105962E-006 -2.3451596812809997E-005 -1.0678269555388393E-005
          -3.4654371351189980E-006 -3.9542433971718773E-006 -1.2282225090759474E-005
           3.7319106522867388E-007  2.6070722919449863E-006 -4.4512927979061827E-007
          -7.7217895508593199E-006 -3.3464607526769957E-006  7.5607235444830588E-006
           1.1719662801445621E-006 -5.5510124269417124E-006 -7.7875328819745611E-006
       &END VELOCITY
     &END REPLICA
     &REPLICA
       &COORD
           4.6778702095531761E+000  1.1805059390522075E+000 -2.8038066881283347E-001
           3.9622533670083269E+000  5.8415715976272453E-001  1.2790147797639895E-001
           5.5640007194435004E+000  7.0678108058952516E-001 -2.1952379575805192E-001
           4.3452888691378302E+000  1.5265582793487489E+000 -1.1676847114255666E+000
           4.8074318054024348E+000  2.3541473366318288E+000  5.5794855923451292E-001
           3.8358202401413277E+000  2.6085198589865914E+000  9.8679274549843743E-001
           5.5190717542556564E+000  2.1540182170602047E+000  1.3549101651283508E+000
           5.3061170413648249E+000  3.5332855960658445E+000 -2.6357699048735211E-001
           4.8225809877341392E+000  4.6535344407825185E+000 -1.0330382556058898E-001
           6.2786585675960618E+000  3.2824455396895829E+000 -1.1425299927570383E+000
           6.0408431055009215E+000  3.0449689959764252E+000 -2.0957897771423055E+000
           7.6782415477065022E+000  3.3377448646197672E+000 -7.7759879992071745E-001
           7.9495586197306141E+000  2.4343582338718712E+000 -2.3997760562993045E-001
           8.2865398478984478E+000  3.4250465552576594E+000 -1.6745302892048224E+000
           7.9439952829789977E+000  4.5432901801485457E+000  1.1350495663754623E-001
           8.6855998048435801E+000  4.4428398861590281E+000  1.0948332625685717E+000
           7.4341562268366674E+000  5.6301697809059839E+000 -1.3702931884214811E-001
       &END COORD
       &VELOCITY
           4.6104150545228564E-005 -3.7034492152717869E-005  9.3470825126483576E-005
           3.3251534723233032E-004  4.8130381403964809E-005  3.7206454973115152E-004
           5.1112213673975301E-004 -1.9693391571610642E-004 -1.2324331050913548E-005
           4.5703293413830546E-004 -6.2718754868509529E-005  2.7727243753950852E-005
           2.0269527129833871E-005  6.3607801157987732E-005  1.1918173408850579E-005
           1.2853755739357638E-004  2.3073158310291204E-004 -2.0872122823915694E-004
          -6.0363250416214821E-005  1.2482614677638277E-004  1.3581836750382393E-004
           2.1033721993706151E-006  6.6297507093785141E-005 -1.5542139836790382E-005
          -7.6532886982103222E-005  1.5496240601105935E-006 -7.2566697072154633E-005
          -3.2616899536639818E-005  4.8782618848031909E-005  2.6828988069907337E-006
          -6.8918257139544243E-005  3.1771866891978825E-004  1.5642535367016701E-004
          -2.6732578672453645E-005  4.5673003912951676E-005  1.3798706168494877E-005
          -3.2242571525796572E-005  2.2302331512404156E-004 -9.3735680121011602E-005
          -1.8344946237406999E-004  1.8835728590688115E-004  1.7554638286903712E-004
           1.4671396900261598E-005 -1.2575663861815049E-005  3.3278456058809114E-005
           5.3294374409150210E-005 -1.5294973709220364E-004  2.1465930416854579E-005
          -7.9505838778404987E-005 -2.1294109306752966E-005 -4.4792922585635547E-005
       &END VELOCITY
     &END REPLICA
     &REPLICA
       &COORD
           6.1559199298068288E+000  1.8645273766851109E+000  4.1740185016595738E-001
           6.0507844561206729E+000  2.5123480747338101E+000  1.1872717237253865E+000
           7.1458073448827211E+000  1.8827509756950938E+000  1.9183366004975708E-001
           5.8127201340642749E+000  9.4710567663989309E-001  6.2268977082702404E-001
           5.4520430904251729E+000  2.4593488621381523E+000 -7.1350105675999398E-001
           6.1285573148983996E+000  2.4953792950390747E+000 -1.5724241224763562E+000
           4.6005729943890339E+000  1.8345942444897638E+000 -9.5525419643884857E-001
           4.9706072031996218E+000  3.8753786758437969E+000 -3.8038050046977345E-001
           3.7788325474596514E+000  4.0850236947665408E+000 -5.9025772814864186E-001
           5.7079260584831708E+000  4.8772721464043700E+000  1.4047937385716244E-001
           5.3099638821888089E+000  5.7953484139800890E+000  8.4821912425589605E-002
           7.0358878069699298E+000  4.8934887712439226E+000  7.2019615212747079E-001
           7.4292961376349886E+000  5.9084074686005534E+000  6.8136863636333678E-001
           6.9481221683322874E+000  4.6099687336098336E+000  1.7680860046468445E+000
           7.9645947553352574E+000  3.9607330530963574E+000 -1.9249569821305289E-002
           8.4754043373628942E+000  3.0645974766404245E+000  6.7451901137551107E-001
           7.8812013074503957E+000  3.9166636244790403E+000 -1.2577546229748158E+000
       &END COORD
       &VELOCITY
           5.4419544043639910E-007  1.0477039863719987E-006 -8.5359173858311046E-007
           2.1433203834508560E-005 -5.4684810625360484E-005  6.0754478565915062E-006
           5.6324359359576789E-005 -1.2734039425751301E-005 -2.2145119957103501E-005
           2.5519660975505565E-005  8.5779194650794062E-006 -7.3986836448649540E-006
           2.9178266004456340E-006  1.9192750422872156E-006  2.3539402299750528E-006
          -3.8971635957285351E-005  2.4390612343077196E-005  8.5742667517386885E-006
          -1.2856967876916384E-005  6.2896299481963987E-006  4.2937459580324628E-005
          -3.1427338874901407E-010  1.1267266906146844E-008 -9.1104840827975761E-007
           1.2533155302043598E-006  8.5512922623912164E-007 -4.4015143565620701E-007
           7.0300232424595449E-007 -2.4274582634700545E-006 -9.5508126373729017E-007
          -1.5410218566436698E-005 -1.7115534543109091E-005 -1.2428943515753042E-005
           6.1926048082965897E-007 -7.4152896017727336E-008 -1.9774105036281787E-006
           1.5854229260800903E-005 -1.3722729346497151E-005 -4.3056664115841377E-005
           1.6486258077523285E-005  2.6881165830500914E-005 -2.1579561087829252E-005
          -1.9848587551650654E-006  1.2080785605673984E-006  2.2712851801364506E-007
           8.1769013173229875E-007 -2.7386765112460721E-006  3.0001705083056758E-006
          -3.3152126896018633E-006  1.6749478063820468E-006 -1.1095362133737849E-006
       &END VELOCITY
     &END REPLICA
     &REPLICA
       &COORD
           3.5814943232941046E+000  1.4564961153622022E+000 -5.0223647748441980E-003
           2.9833692657062656E+000  2.2270873447707387E+000 -2.6869749186153946E-001
           3.4317044328236626E+000  1.2492111933049317E+000  9.7179386656069500E-001
           3.4914808008024418E+000  7.2522653392716141E-001 -6.9602262891116340E-001
           4.9568288837373329E+000  1.9020092616761517E+000 -9.5586614409461770E-002
           5.5169421045409415E+000  1.5298753264443918E+000  7.6282617331561164E-001
           5.4035210660123099E+000  1.5204208719543988E+000 -1.0134261402112104E+000
           5.0223827636722893E+000  3.4228713172113778E+000 -1.0816822236078193E-001
           4.0297669611295923E+000  4.0916668137347134E+000  1.7231074721203354E-001
           6.1957353101304902E+000  3.9678415596115193E+000 -4.3464676165301047E-001
           6.2422773650836350E+000  4.6684325234001403E+000 -1.1615629456649428E+000
           7.4284295755160592E+000  3.5859895285349657E+000  2.2501669379093495E-001
           7.2792448977363913E+000  3.5947551078204119E+000  1.3052921663142953E+000
           7.7157337621557867E+000  2.5851816283930131E+000 -9.4962760788169107E-002
           8.5438333897985377E+000  4.5589548469624903E+000 -1.2930352891915284E-001
           8.2888053662814531E+000  5.6206460205245374E+000 -6.9356017194731967E-001
           9.7111504758691822E+000  4.2947921293157023E+000  1.4618672349098516E-001
       &END COORD
       &VELOCITY
           0.0000000000000000E+000  0.0000000000000000E+000  0.0000000000000000E+000
           0.0000000000000000E+000  0.0000000000000000E+000  0.0000000000000000E+000
           0.0000000000000000E+000  0.0000000000000000E+000  0.0000000000000000E+000
           0.0000000000000000E+000  0.0000000000000000E+000  0.0000000000000000E+000
           0.0000000000000000E+000  0.0000000000000000E+000  0.0000000000000000E+000
           0.0000000000000000E+000  0.0000000000000000E+000  0.0000000000000000E+000
           0.0000000000000000E+000  0.0000000000000000E+000  0.0000000000000000E+000
           0.0000000000000000E+000  0.0000000000000000E+000  0.0000000000000000E+000
           0.0000000000000000E+000  0.0000000000000000E+000  0.0000000000000000E+000
           0.0000000000000000E+000  0.0000000000000000E+000  0.0000000000000000E+000
           0.0000000000000000E+000  0.0000000000000000E+000  0.0000000000000000E+000
           0.0000000000000000E+000  0.0000000000000000E+000  0.0000000000000000E+000
           0.0000000000000000E+000  0.0000000000000000E+000  0.0000000000000000E+000
           0.0000000000000000E+000  0.0000000000000000E+000  0.0000000000000000E+000
           0.0000000000000000E+000  0.0000000000000000E+000  0.0000000000000000E+000
           0.0000000000000000E+000  0.0000000000000000E+000  0.0000000000000000E+000
           0.0000000000000000E+000  0.0000000000000000E+000  0.0000000000000000E+000
       &END VELOCITY
     &END REPLICA
     &PROGRAM_RUN_INFO SILENT
     &END PROGRAM_RUN_INFO
     &CONVERGENCE_INFO SILENT
     &END CONVERGENCE_INFO
   &END BAND
   &PRINT
     &VELOCITIES OFF
     &END VELOCITIES
   &END PRINT
 &END MOTION
 &FORCE_EVAL
   METHOD FIST
   &MM
     &FORCEFIELD
       PARMTYPE CHM
       PARM_FILE_NAME ./amber/mol.pot
       &SPLINE
         R0_NB  5.2917720859000010E-005
         RCUT_NB  2.0000000000000004E+001
         EMAX_SPLINE  1.0000000000000000E+010
         EMAX_ACCURACY  5.0000000000000000E+002
         EPS_SPLINE  9.9999999999999995E-007
       &END SPLINE
     &END FORCEFIELD
     &POISSON
       &EWALD
         EWALD_TYPE EWALD
         ALPHA  3.5999999999999999E-001
         GMAX 29
       &END EWALD
     &END POISSON
     &PRINT
       &FF_INFO SILENT
         SPLINE_INFO T
       &END FF_INFO
     &END PRINT
   &END MM
   &SUBSYS
     &CELL
       A  3.0000000000000007E+001  0.0000000000000000E+000  0.0000000000000000E+000
       B  0.0000000000000000E+000  3.0000000000000007E+001  0.0000000000000000E+000
       C  0.0000000000000000E+000  0.0000000000000000E+000  3.0000000000000007E+001
       MULTIPLE_UNIT_CELL 1 1 1
     &END CELL
     &COORD
       N3  3.3290000000000006E+000  1.5780000000000003E+000 -2.8199999999999997E-001
       H11  4.0149999999999997E+000  9.6499999999999997E-001 -7.0000000000000007E-001
       H11  2.6180000000000003E+000  1.7849999999999999E+000 -9.6900000000000008E-001
       H11  3.0670000000000002E+000  1.2050000000000001E+000  6.1899999999999999E-001
       CT1  3.9700000000000006E+000  2.8460000000000001E+000  0.0000000000000000E+000
       HP  3.6899999999999999E+000  3.5730000000000000E+000 -7.6200000000000001E-001
       HP  3.6509999999999998E+000  3.2050000000000001E+000  9.7899999999999998E-001
       C1  5.4840000000000000E+000  2.6870000000000003E+000  0.0000000000000000E+000
       O  5.9930000000000012E+000  1.5680000000000001E+000  0.0000000000000000E+000
       N  6.2030000000000012E+000  3.8110000000000004E+000  0.0000000000000000E+000
       H2  5.7450000000000001E+000  4.7030000000000003E+000 -1.2200000000000000E-001
       CT2  7.6420000000000003E+000  3.7999999999999998E+000  1.7100000000000001E-001
       H12  7.8830000000000000E+000  3.5540000000000003E+000  1.2050000000000001E+000
       H12  8.0809999999999995E+000  3.0550000000000006E+000 -4.9200000000000005E-001
       C2  8.2270000000000003E+000  5.1660000000000013E+000 -1.6200000000000003E-001
       O2  7.5410000000000004E+000  6.0170000000000003E+000 -7.2399999999999998E-001
       O2  9.3910000000000018E+000  5.4320000000000004E+000  1.2600000000000000E-001
     &END COORD
     &TOPOLOGY
       CHARGE_BETA T
       COORD_FILE_NAME ./amber/mol.pdb
       COORD_FILE_FORMAT PDB
       NUMBER_OF_ATOMS 17
       CONN_FILE_NAME ./amber/mol.psf
       CONN_FILE_FORMAT UPSF
       MULTIPLE_UNIT_CELL 1 1 1
     &END TOPOLOGY
   &END SUBSYS
 &END FORCE_EVAL
