 # Version information for this restart file 
 # current date 2026-04-22 11:54:42.225
 # current working dir /DATA/lab07/hglee/cp2k_agent/test/level7
 # Program compiled at                                       2026-03-01 16:41:12
 # Program compiled on                                                    master
 # Program compiled for                                                   x86_64
 # Source code revision number                                       git:5e54ba2
 &GLOBAL
   PRINT_LEVEL LOW
   PROJECT_NAME "2gly_B-NEB-r-0"
   OUTPUT_FILE_NAME 2gly_B-NEB-r-0.out
   RUN_TYPE BAND
 &END GLOBAL
 &MOTION
   &BAND
     NPROC_REP 1
     BAND_TYPE B-NEB
     NUMBER_OF_REPLICA 5
     ROTATE_FRAMES T
     K_SPRING  5.0000000000000003E-002
     &CONVERGENCE_CONTROL
       MAX_FORCE  1.0000000000000000E-003
       RMS_FORCE  5.0000000000000001E-004
     &END CONVERGENCE_CONTROL
     &OPTIMIZE_BAND
       OPT_TYPE MD
       &MD
         MAX_STEPS 20
         TIMESTEP  4.9999999999999994E-001
         TEMPERATURE  1.0000000000000001E+002
         &VEL_CONTROL
           ANNEALING  9.4999999999999996E-001
           PROJ_VELOCITY_VERLET T
         &END VEL_CONTROL
       &END MD
     &END OPTIMIZE_BAND
     &REPLICA
       &COORD
           3.3290000000000006E+000  1.5780000000000003E+000 -2.8199999999999997E-001
           4.0149999999999997E+000  9.6499999999999997E-001 -7.0000000000000007E-001
           2.6180000000000003E+000  1.7849999999999999E+000 -9.6900000000000008E-001
           3.0670000000000002E+000  1.2050000000000001E+000  6.1899999999999999E-001
           3.9700000000000006E+000  2.8460000000000001E+000  0.0000000000000000E+000
           3.6899999999999999E+000  3.5730000000000000E+000 -7.6200000000000001E-001
           3.6509999999999998E+000  3.2050000000000001E+000  9.7899999999999998E-001
           5.4840000000000000E+000  2.6870000000000003E+000  0.0000000000000000E+000
           5.9930000000000012E+000  1.5680000000000001E+000  0.0000000000000000E+000
           6.2030000000000012E+000  3.8110000000000004E+000  0.0000000000000000E+000
           5.7450000000000001E+000  4.7030000000000003E+000 -1.2200000000000000E-001
           7.6420000000000003E+000  3.7999999999999998E+000  1.7100000000000001E-001
           7.8830000000000000E+000  3.5540000000000003E+000  1.2050000000000001E+000
           8.0809999999999995E+000  3.0550000000000006E+000 -4.9200000000000005E-001
           8.2270000000000003E+000  5.1660000000000013E+000 -1.6200000000000003E-001
           7.5410000000000004E+000  6.0170000000000003E+000 -7.2399999999999998E-001
           9.3910000000000018E+000  5.4320000000000004E+000  1.2600000000000000E-001
       &END COORD
       &VELOCITY
           0.0000000000000000E+000  0.0000000000000000E+000  0.0000000000000000E+000
           0.0000000000000000E+000  0.0000000000000000E+000  0.0000000000000000E+000
           0.0000000000000000E+000  0.0000000000000000E+000  0.0000000000000000E+000
           0.0000000000000000E+000  0.0000000000000000E+000  0.0000000000000000E+000
           0.0000000000000000E+000  0.0000000000000000E+000  0.0000000000000000E+000
           0.0000000000000000E+000  0.0000000000000000E+000  0.0000000000000000E+000
           0.0000000000000000E+000  0.0000000000000000E+000  0.0000000000000000E+000
           0.0000000000000000E+000  0.0000000000000000E+000  0.0000000000000000E+000
           0.0000000000000000E+000  0.0000000000000000E+000  0.0000000000000000E+000
           0.0000000000000000E+000  0.0000000000000000E+000  0.0000000000000000E+000
           0.0000000000000000E+000  0.0000000000000000E+000  0.0000000000000000E+000
           0.0000000000000000E+000  0.0000000000000000E+000  0.0000000000000000E+000
           0.0000000000000000E+000  0.0000000000000000E+000  0.0000000000000000E+000
           0.0000000000000000E+000  0.0000000000000000E+000  0.0000000000000000E+000
           0.0000000000000000E+000  0.0000000000000000E+000  0.0000000000000000E+000
           0.0000000000000000E+000  0.0000000000000000E+000  0.0000000000000000E+000
           0.0000000000000000E+000  0.0000000000000000E+000  0.0000000000000000E+000
       &END VELOCITY
     &END REPLICA
     &REPLICA
       &COORD
           3.5948587628650257E+000  1.8029551582619132E+000 -8.8673218767519590E-001
           3.7526715851604187E+000  1.4607017096983925E+000 -1.8116643825798737E+000
           3.4819127773627803E+000  2.8050903689725035E+000 -8.9892807398687768E-001
           2.8437517988265686E+000  1.2818613522671154E+000 -4.7903922756318212E-001
           4.7733898480462109E+000  1.5794332010072176E+000 -7.3476528861848620E-002
           4.4687080278847615E+000  1.1282566413753528E+000  8.8439393859687532E-001
           5.4463660091339046E+000  8.9559603686285016E-001 -6.0063602376610215E-001
           5.4697723268966616E+000  2.9183821711790023E+000  1.7612060220442077E-001
           4.9693117359000745E+000  3.7255964232423264E+000  9.6510553063629001E-001
           6.6238963809944913E+000  3.0996074547160526E+000 -4.6867732493019865E-001
           6.7261336854932834E+000  2.8913589536495263E+000 -1.4558730839818732E+000
           7.8123218493795434E+000  3.5567093410405759E+000  2.2363166631949058E-001
           7.6622336477131485E+000  3.4714867722714020E+000  1.2988489271422481E+000
           8.6584517685986579E+000  2.9290254744771973E+000 -6.2572379722085444E-002
           8.1120002405285714E+000  5.0030358586559061E+000 -1.3853762809967612E-001
           7.3851552437032408E+000  5.8931567116944636E+000  3.2166965875499476E-001
           9.0650176003399991E+000  5.2326063023017477E+000 -8.9737765063846775E-001
       &END COORD
       &VELOCITY
           4.8491809270633201E-004 -9.0364058564653782E-005  8.6597176596118111E-005
           1.8603178461824545E-004  1.0853750685679240E-005  6.4190554371001098E-005
           5.1103529280975936E-004 -1.3895945830512261E-004  4.0079898427061939E-004
           1.3431337526115914E-004  2.4346284896740132E-004 -2.6760320579131535E-004
           3.8682345273141242E-004 -1.2346583408031012E-004  1.7718138472232170E-004
           1.4077991238678817E-004 -7.8187899712807947E-005  2.0011920183230200E-004
           3.7886167973458587E-004 -1.9212152492000152E-004  1.7654087341296645E-004
           1.5918994291471675E-005  2.3715973278423365E-004 -1.4467909294706111E-004
          -3.0973005163040240E-004  2.2750217548967057E-004 -1.2600245969907379E-004
           7.8657795688415590E-005  1.4228915048583593E-004 -3.1116437553033784E-004
           4.5941333668689878E-004 -4.8511943838447510E-004 -2.1225108713548426E-004
           2.9331031344443250E-005 -5.4312249502992922E-006 -1.6065425699657944E-004
           4.0264232616638163E-005 -2.0382992151848448E-004 -1.8107239945394719E-004
           3.5456097246270411E-005  4.9453782988909815E-005 -1.6204126972872070E-004
          -9.7976917238736243E-005 -7.4369801893751792E-005  3.0552922402950355E-005
          -2.4470186217086031E-004 -4.3911874553725574E-004  5.4781874188983347E-004
          -3.4200762155807228E-004 -3.5410330360227617E-004 -4.0701138290500359E-004
       &END VELOCITY
     &END REPLICA
     &REPLICA
       &COORD
           4.8886668834463141E+000  1.1469466519011318E+000  6.3916239536073075E-002
           4.1338629255682706E+000  6.8997219563152357E-001  5.7796979221981726E-001
           5.8088430952593644E+000  6.7175626545425937E-001  2.3698124667305120E-001
           4.7601564728429757E+000  1.2901025849411012E+000 -9.3672598276947749E-001
           4.8006859734083331E+000  2.5358414295349596E+000  5.5954785957555919E-001
           3.7874860327485331E+000  2.8796392976115897E+000  6.6233651392851134E-001
           5.2911906907143988E+000  2.5314403252836741E+000  1.5201336409684603E+000
           5.3197103351734762E+000  3.5784102970888187E+000 -4.0341414669175524E-001
           4.7050093058441078E+000  4.6158608057469994E+000 -6.2916453880947854E-001
           6.3610572763019331E+000  3.2061331029561493E+000 -1.0816835433717025E+000
           6.2209733918224295E+000  2.9686106712307407E+000 -2.0243244590212970E+000
           7.6877986390520485E+000  3.3301897114973178E+000 -5.6494922192060382E-001
           7.9373578219505072E+000  2.5372705201442658E+000  7.4881983251209233E-002
           8.3634637592591492E+000  3.3519594448980903E+000 -1.3631219021839276E+000
           7.9074143695954531E+000  4.5659211585959643E+000  1.9308384047150332E-001
           8.5779244657158724E+000  4.4440809829496706E+000  1.2518732295705532E+000
           7.3674215883347864E+000  5.5537469945683808E+000 -3.4414147910635551E-001
       &END COORD
       &VELOCITY
           2.8706082061664005E-003  2.6500341714068548E-004  2.2061204190670408E-003
           2.8665981127795918E-003  7.9789066121091013E-004  2.8722119317362341E-003
           2.7219567829933323E-003  2.4696286499515551E-004  1.7829855319049575E-003
           3.1624775817888735E-003 -9.9006234558788502E-004  1.9541604281497799E-003
           1.0441879236704650E-003  1.0628030570512914E-003  2.7497929997822830E-004
           7.5378771421269225E-004  8.1436805947161437E-004 -1.7444511589620889E-003
          -4.6299711572943774E-004  2.1660627237405647E-003  8.5104973687180380E-004
          -3.2553035516177812E-004  1.2050126306412726E-003 -1.8773838809660307E-004
          -2.1074177321724428E-003 -2.4289678654410579E-004 -2.4024366073457084E-003
          -6.4163808384551737E-004  1.1222666392617139E-003 -1.8379427566774195E-004
          -6.9176762531051239E-004  3.5735192654471216E-003 -7.2853651663974271E-004
          -7.0099234126714117E-004  7.7274364440755347E-004 -1.7893758096499554E-004
          -1.2952258503483031E-004  5.3818985726668213E-004 -7.6918074537478680E-004
          -9.5386186976523734E-004  2.0554638025462408E-003 -2.4889486129185559E-004
          -2.7569958812446549E-004 -4.8336624550535540E-004  7.5787718765668393E-004
           2.2548367800400584E-004 -2.2594217560628653E-003  3.3203077735903844E-004
          -5.4510096836751613E-004 -3.8501051271861353E-004  1.1149072589775363E-003
       &END VELOCITY
     &END REPLICA
     &REPLICA
       &COORD
           6.0731208912779788E+000  1.9972055540593856E+000  7.2049609972491635E-001
           5.8746865785118452E+000  2.7555193425648081E+000  1.3527823779523704E+000
           7.0910091842289500E+000  1.9685153373803699E+000  6.2565000059267317E-001
           5.6854757585525322E+000  1.1393984796072041E+000  1.0500030477450299E+000
           5.5169062700069356E+000  2.3661233446734595E+000 -5.7456669411222239E-001
           6.2738808780868380E+000  2.2418311720445034E+000 -1.3463654036003418E+000
           4.6771542266001438E+000  1.7096523985172927E+000 -7.7512640692734147E-001
           5.0277020788502922E+000  3.8078513845076416E+000 -6.1218931472655169E-001
           3.8864518643244099E+000  3.9727762018454946E+000 -1.0303988831721014E+000
           5.7102099603317651E+000  4.8895600364568743E+000 -2.0901916402681078E-001
           5.3319996849327742E+000  5.7685174983667764E+000 -5.0598221223089590E-001
           6.9524287346692129E+000  5.0360793325349231E+000  5.2088700645733610E-001
           7.3837407396001549E+000  6.0100084201421735E+000  3.0790660206445891E-001
           6.7274242127864960E+000  4.9924425715977909E+000  1.5811477291608969E+000
           7.9370730707551775E+000  3.9724671337755275E+000  1.3277992938745065E-001
           8.3347173822358300E+000  3.2370569001889171E+000  1.0649567751390907E+000
           8.0004987273534667E+000  3.6965420365300234E+000 -1.0799575146612124E+000
       &END COORD
       &VELOCITY
           3.4307768363585356E-004 -1.8996788570626918E-004  1.5989347069127317E-006
           4.0653996624557507E-004 -4.2442896216527245E-004  3.1940905568603341E-004
           3.0702822533724576E-004 -1.2796251036200623E-004 -1.6635055387952767E-004
           4.5876086627470714E-004 -2.9849206118539098E-004 -1.4371131822076008E-004
          -1.4465482468289093E-005  3.3057802284817396E-005  1.7393249407205379E-004
          -3.0538891948430594E-004  9.6623283750813495E-005 -1.5734872369163919E-004
          -1.9082343574404573E-004  1.6851590358290993E-004  4.9670133050010320E-004
           4.3916614905868004E-006  2.5797225080995353E-005  9.2482487879374351E-005
           9.0199263954596321E-005  6.2758549295915337E-005 -1.6384714061682486E-004
           2.6269637113663929E-007  3.7396165816826394E-005  1.2467923122064359E-005
          -7.4150784004627847E-005 -2.3238164241316982E-005 -1.0604270984295736E-004
           1.1448464254170881E-004  9.1397520939305249E-005 -1.7000347842368869E-004
           2.8376641436480670E-004 -9.6061794798189883E-005 -6.5312505465851670E-004
           2.4647925514053291E-004  4.0411353518126887E-004 -1.0947189704998606E-004
          -5.2196714035195384E-005 -5.9136396830489331E-005 -3.8866702038810329E-005
           5.0889790009580696E-005  2.5257010909280704E-005 -5.6650997383634695E-005
          -1.6631949839334385E-004 -1.1121146378506782E-004 -2.9637916204156683E-006
       &END VELOCITY
     &END REPLICA
     &REPLICA
       &COORD
           3.5519207865876661E+000  1.4980183583283591E+000  4.5337947829221584E-002
           3.0113766010001921E+000  2.1931439246449078E+000 -4.5034484436824412E-001
           3.2646690584323110E+000  1.4934893502737057E+000  1.0133461775245094E+000
           3.5435708202150504E+000  6.4017023145578245E-001 -4.8792171620208818E-001
           4.9351955923894026E+000  1.9276855101869566E+000  5.8220115655237735E-002
           5.3639676502939393E+000  1.7438328818835802E+000  1.0438345095366626E+000
           5.4965786091632314E+000  1.3704675547404646E+000 -6.9139996052065089E-001
           5.0321467414917080E+000  3.4143741325354262E+000 -2.5456481823281613E-001
           4.0238466772772181E+000  4.1176285110067479E+000 -2.5706675068122042E-001
           6.2499487398427753E+000  3.8913908075674772E+000 -5.1866779919575878E-001
           6.4103048700589182E+000  4.4289670375927255E+000 -1.3593215379098296E+000
           7.3719651228770102E+000  3.6633102348469584E+000  3.6990436363079304E-001
           7.0753404691245532E+000  3.8914157716930711E+000  1.3942625426123367E+000
           7.6806785043245007E+000  2.6207910563395971E+000  3.0359591349362369E-001
           8.5447536810811275E+000  4.5530654717072787E+000 -1.6402012481670464E-002
           8.3912337002263602E+000  5.4747020455402691E+000 -8.1491979014960569E-001
           9.6573899471205795E+000  4.3610740065713740E+000  4.6680168867215743E-001
       &END COORD
       &VELOCITY
           0.0000000000000000E+000  0.0000000000000000E+000  0.0000000000000000E+000
           0.0000000000000000E+000  0.0000000000000000E+000  0.0000000000000000E+000
           0.0000000000000000E+000  0.0000000000000000E+000  0.0000000000000000E+000
           0.0000000000000000E+000  0.0000000000000000E+000  0.0000000000000000E+000
           0.0000000000000000E+000  0.0000000000000000E+000  0.0000000000000000E+000
           0.0000000000000000E+000  0.0000000000000000E+000  0.0000000000000000E+000
           0.0000000000000000E+000  0.0000000000000000E+000  0.0000000000000000E+000
           0.0000000000000000E+000  0.0000000000000000E+000  0.0000000000000000E+000
           0.0000000000000000E+000  0.0000000000000000E+000  0.0000000000000000E+000
           0.0000000000000000E+000  0.0000000000000000E+000  0.0000000000000000E+000
           0.0000000000000000E+000  0.0000000000000000E+000  0.0000000000000000E+000
           0.0000000000000000E+000  0.0000000000000000E+000  0.0000000000000000E+000
           0.0000000000000000E+000  0.0000000000000000E+000  0.0000000000000000E+000
           0.0000000000000000E+000  0.0000000000000000E+000  0.0000000000000000E+000
           0.0000000000000000E+000  0.0000000000000000E+000  0.0000000000000000E+000
           0.0000000000000000E+000  0.0000000000000000E+000  0.0000000000000000E+000
           0.0000000000000000E+000  0.0000000000000000E+000  0.0000000000000000E+000
       &END VELOCITY
     &END REPLICA
     &PROGRAM_RUN_INFO SILENT
     &END PROGRAM_RUN_INFO
     &CONVERGENCE_INFO SILENT
     &END CONVERGENCE_INFO
   &END BAND
   &PRINT
     &VELOCITIES OFF
     &END VELOCITIES
   &END PRINT
 &END MOTION
 &FORCE_EVAL
   METHOD FIST
   &MM
     &FORCEFIELD
       PARMTYPE CHM
       PARM_FILE_NAME ./amber/mol.pot
       &SPLINE
         R0_NB  5.2917720859000010E-005
         RCUT_NB  2.0000000000000004E+001
         EMAX_SPLINE  1.0000000000000000E+010
         EMAX_ACCURACY  5.0000000000000000E+002
         EPS_SPLINE  9.9999999999999995E-007
       &END SPLINE
     &END FORCEFIELD
     &POISSON
       &EWALD
         EWALD_TYPE EWALD
         ALPHA  3.5999999999999999E-001
         GMAX 29
       &END EWALD
     &END POISSON
     &PRINT
       &FF_INFO SILENT
         SPLINE_INFO T
       &END FF_INFO
     &END PRINT
   &END MM
   &SUBSYS
     &CELL
       A  3.0000000000000007E+001  0.0000000000000000E+000  0.0000000000000000E+000
       B  0.0000000000000000E+000  3.0000000000000007E+001  0.0000000000000000E+000
       C  0.0000000000000000E+000  0.0000000000000000E+000  3.0000000000000007E+001
       MULTIPLE_UNIT_CELL 1 1 1
     &END CELL
     &COORD
       N3  3.3290000000000006E+000  1.5780000000000003E+000 -2.8199999999999997E-001
       H11  4.0149999999999997E+000  9.6499999999999997E-001 -7.0000000000000007E-001
       H11  2.6180000000000003E+000  1.7849999999999999E+000 -9.6900000000000008E-001
       H11  3.0670000000000002E+000  1.2050000000000001E+000  6.1899999999999999E-001
       CT1  3.9700000000000006E+000  2.8460000000000001E+000  0.0000000000000000E+000
       HP  3.6899999999999999E+000  3.5730000000000000E+000 -7.6200000000000001E-001
       HP  3.6509999999999998E+000  3.2050000000000001E+000  9.7899999999999998E-001
       C1  5.4840000000000000E+000  2.6870000000000003E+000  0.0000000000000000E+000
       O  5.9930000000000012E+000  1.5680000000000001E+000  0.0000000000000000E+000
       N  6.2030000000000012E+000  3.8110000000000004E+000  0.0000000000000000E+000
       H2  5.7450000000000001E+000  4.7030000000000003E+000 -1.2200000000000000E-001
       CT2  7.6420000000000003E+000  3.7999999999999998E+000  1.7100000000000001E-001
       H12  7.8830000000000000E+000  3.5540000000000003E+000  1.2050000000000001E+000
       H12  8.0809999999999995E+000  3.0550000000000006E+000 -4.9200000000000005E-001
       C2  8.2270000000000003E+000  5.1660000000000013E+000 -1.6200000000000003E-001
       O2  7.5410000000000004E+000  6.0170000000000003E+000 -7.2399999999999998E-001
       O2  9.3910000000000018E+000  5.4320000000000004E+000  1.2600000000000000E-001
     &END COORD
     &TOPOLOGY
       CHARGE_BETA T
       COORD_FILE_NAME ./amber/mol.pdb
       COORD_FILE_FORMAT PDB
       NUMBER_OF_ATOMS 17
       CONN_FILE_NAME ./amber/mol.psf
       CONN_FILE_FORMAT UPSF
       MULTIPLE_UNIT_CELL 1 1 1
     &END TOPOLOGY
   &END SUBSYS
 &END FORCE_EVAL
