 # Version information for this restart file 
 # current date 2026-04-22 11:54:42.246
 # current working dir /DATA/lab07/hglee/cp2k_agent/test/level7
 # Program compiled at                                       2026-03-01 16:41:12
 # Program compiled on                                                    master
 # Program compiled for                                                   x86_64
 # Source code revision number                                       git:5e54ba2
 &GLOBAL
   PRINT_LEVEL LOW
   PROJECT_NAME "2gly_B-NEB-r-0"
   OUTPUT_FILE_NAME 2gly_B-NEB-r-0.out
   RUN_TYPE BAND
 &END GLOBAL
 &MOTION
   &BAND
     NPROC_REP 1
     BAND_TYPE B-NEB
     NUMBER_OF_REPLICA 5
     ROTATE_FRAMES T
     K_SPRING  5.0000000000000003E-002
     &CONVERGENCE_CONTROL
       MAX_FORCE  1.0000000000000000E-003
       RMS_FORCE  5.0000000000000001E-004
     &END CONVERGENCE_CONTROL
     &OPTIMIZE_BAND
       OPT_TYPE MD
       &MD
         MAX_STEPS 20
         TIMESTEP  4.9999999999999994E-001
         TEMPERATURE  1.0000000000000001E+002
         &VEL_CONTROL
           ANNEALING  9.4999999999999996E-001
           PROJ_VELOCITY_VERLET T
         &END VEL_CONTROL
       &END MD
     &END OPTIMIZE_BAND
     &REPLICA
       &COORD
           3.3290000000000006E+000  1.5780000000000003E+000 -2.8199999999999997E-001
           4.0149999999999997E+000  9.6499999999999997E-001 -7.0000000000000007E-001
           2.6180000000000003E+000  1.7849999999999999E+000 -9.6900000000000008E-001
           3.0670000000000002E+000  1.2050000000000001E+000  6.1899999999999999E-001
           3.9700000000000006E+000  2.8460000000000001E+000  0.0000000000000000E+000
           3.6899999999999999E+000  3.5730000000000000E+000 -7.6200000000000001E-001
           3.6509999999999998E+000  3.2050000000000001E+000  9.7899999999999998E-001
           5.4840000000000000E+000  2.6870000000000003E+000  0.0000000000000000E+000
           5.9930000000000012E+000  1.5680000000000001E+000  0.0000000000000000E+000
           6.2030000000000012E+000  3.8110000000000004E+000  0.0000000000000000E+000
           5.7450000000000001E+000  4.7030000000000003E+000 -1.2200000000000000E-001
           7.6420000000000003E+000  3.7999999999999998E+000  1.7100000000000001E-001
           7.8830000000000000E+000  3.5540000000000003E+000  1.2050000000000001E+000
           8.0809999999999995E+000  3.0550000000000006E+000 -4.9200000000000005E-001
           8.2270000000000003E+000  5.1660000000000013E+000 -1.6200000000000003E-001
           7.5410000000000004E+000  6.0170000000000003E+000 -7.2399999999999998E-001
           9.3910000000000018E+000  5.4320000000000004E+000  1.2600000000000000E-001
       &END COORD
       &VELOCITY
           0.0000000000000000E+000  0.0000000000000000E+000  0.0000000000000000E+000
           0.0000000000000000E+000  0.0000000000000000E+000  0.0000000000000000E+000
           0.0000000000000000E+000  0.0000000000000000E+000  0.0000000000000000E+000
           0.0000000000000000E+000  0.0000000000000000E+000  0.0000000000000000E+000
           0.0000000000000000E+000  0.0000000000000000E+000  0.0000000000000000E+000
           0.0000000000000000E+000  0.0000000000000000E+000  0.0000000000000000E+000
           0.0000000000000000E+000  0.0000000000000000E+000  0.0000000000000000E+000
           0.0000000000000000E+000  0.0000000000000000E+000  0.0000000000000000E+000
           0.0000000000000000E+000  0.0000000000000000E+000  0.0000000000000000E+000
           0.0000000000000000E+000  0.0000000000000000E+000  0.0000000000000000E+000
           0.0000000000000000E+000  0.0000000000000000E+000  0.0000000000000000E+000
           0.0000000000000000E+000  0.0000000000000000E+000  0.0000000000000000E+000
           0.0000000000000000E+000  0.0000000000000000E+000  0.0000000000000000E+000
           0.0000000000000000E+000  0.0000000000000000E+000  0.0000000000000000E+000
           0.0000000000000000E+000  0.0000000000000000E+000  0.0000000000000000E+000
           0.0000000000000000E+000  0.0000000000000000E+000  0.0000000000000000E+000
           0.0000000000000000E+000  0.0000000000000000E+000  0.0000000000000000E+000
       &END VELOCITY
     &END REPLICA
     &REPLICA
       &COORD
           3.6708033869256180E+000  1.7160430631229031E+000 -9.0591584295608540E-001
           3.8955697278564911E+000  1.2804683664265601E+000 -1.7744247710149157E+000
           3.5649301768700941E+000  2.7100886570692708E+000 -1.0254434982497262E+000
           2.8811320713849704E+000  1.2442115563267522E+000 -5.1667694696263988E-001
           4.7769858834386847E+000  1.5853766655522932E+000  2.0263124549749288E-002
           4.3899363863581629E+000  1.2375669437326542E+000  9.9355394094163574E-001
           5.4887405285357218E+000  8.5109247068228633E-001 -3.7489953981469365E-001
           5.4482891385559231E+000  2.9538043202755273E+000  1.7315764090493976E-001
           4.8819060924077800E+000  3.8378699118268651E+000  8.2877714138070480E-001
           6.6526705734588880E+000  3.0688866047143883E+000 -3.9605387466143749E-001
           6.8424483917106000E+000  2.7428130002949009E+000 -1.3403722931514848E+000
           7.7819277871705728E+000  3.5997522316078649E+000  3.4069631698654673E-001
           7.5459053786245729E+000  3.6236716944015468E+000  1.4028802745338922E+000
           8.6465548776421315E+000  2.9510771583063233E+000  1.9105300260537419E-001
           8.1118167014996860E+000  4.9997370459353592E+000 -1.4353244941842544E-001
           7.3501412756382143E+000  5.9235505892329119E+000  1.7132408421880027E-001
           9.1185773952436087E+000  5.1460687317211704E+000 -8.5267042741331700E-001
       &END COORD
       &VELOCITY
           5.7135600707594277E-004 -1.0201994501575489E-004  1.5968963769292017E-004
           2.8074932560546084E-004 -8.1578892718056105E-006  1.3550189679797307E-004
           7.0678690791154352E-004 -1.1467394356353195E-004  4.7559399358839587E-004
           2.2435190722378722E-004  2.0949785120091645E-004 -3.1120950742168411E-004
           4.3358513493762304E-004 -1.3379546442125804E-004  2.3943025443091276E-004
           2.0221989111014735E-004 -1.1210370730856875E-004  2.2261937073358328E-004
           4.5036544393444865E-004 -1.6590141212964363E-004  2.2452336253283672E-004
           2.6615533225053296E-005  2.4499313591467143E-004 -1.6487770712820819E-004
          -3.2807157065553632E-004  3.1539048522528695E-004 -2.3183652246704708E-004
           8.7044812131725262E-005  1.0818210084118680E-004 -4.0669347376140035E-004
           4.8536842690059703E-004 -5.8485342309594270E-004 -2.0577379822446282E-004
           2.4942537272972934E-005 -7.5050252776484296E-005 -1.8115520918777396E-004
           1.9233198875697266E-005 -2.3610587208967962E-004 -1.8539913376808777E-004
           7.3710299324401213E-005  4.6398920455802282E-005 -1.7401004090626844E-004
          -1.3172012496102180E-004 -1.6087177786473642E-004  4.8919375725539003E-005
          -2.0677763665872018E-004 -4.6800207088327654E-004  6.3563056914055737E-004
          -4.5511038473084804E-004 -3.5828477055620874E-004 -4.3153043182151264E-004
       &END VELOCITY
     &END REPLICA
     &REPLICA
       &COORD
           4.9385146207867701E+000  1.1701367757846359E+000  2.1951496636507861E-001
           4.1615349480941868E+000  7.6378911385796577E-001  7.4369958687442006E-001
           5.8490696804297979E+000  7.1275627739191083E-001  4.7055555994604176E-001
           4.8723373559685061E+000  1.2074235411212040E+000 -7.9392637999765214E-001
           4.7899381641103655E+000  2.6051215929045139E+000  5.5953025094799802E-001
           3.7701523459089712E+000  2.9429082654975978E+000  5.3866382502014221E-001
           5.1969575833042416E+000  2.7032714172344807E+000  1.5509531807855497E+000
           5.3306017806793440E+000  3.5751101110943941E+000 -4.6346293572697600E-001
           4.6941041363000400E+000  4.5553641130456430E+000 -8.4445774991701461E-001
           6.3984993002130786E+000  3.1533700713372386E+000 -1.0579217653028392E+000
           6.3061719660284163E+000  2.9041795647736244E+000 -2.0032524236526243E+000
           7.6961180399334035E+000  3.3122590969971979E+000 -4.8342329490348540E-001
           7.9237021169245772E+000  2.5646700429739009E+000  2.1394244083755504E-001
           8.4055809760443854E+000  3.3068561552687519E+000 -1.2499994524596783E+000
           7.8847511334227773E+000  4.5781030891845056E+000  2.1274570950897573E-001
           8.5097680412730607E+000  4.5020489104911556E+000  1.3050960252629411E+000
           7.3692322242628707E+000  5.5252979288137709E+000 -4.1550820223036206E-001
       &END COORD
       &VELOCITY
           2.8852278510270108E-003  6.9323749112662643E-004  2.5181833461608268E-003
           2.9943190371312244E-003  1.0824173269481090E-003  3.0560604903999713E-003
           2.7636157878413014E-003  8.7475899687907311E-004  2.3650206243812826E-003
           3.1134656712932976E-003 -9.1431406847515084E-004  2.4307949751694196E-003
           1.0836118854679949E-003  1.2114823318375948E-003  3.3549402871962876E-004
           8.4513905968471720E-004  3.4830826787527537E-004 -1.7278484279516541E-003
          -5.0298039659884435E-004  2.6494227602920119E-003  6.7235867575202450E-004
          -3.2941799627264585E-004  1.1919932572320151E-003 -3.6234208973750322E-004
          -2.0860879568713030E-003 -7.2213429468358529E-004 -2.5740375742568959E-003
          -6.7275246018706693E-004  1.0212085990123263E-003 -5.4360049250057427E-004
          -6.1846625038990881E-004  4.1851854544803528E-003 -1.3491089479597210E-003
          -6.3380914464092764E-004  6.1326997816143255E-004 -4.7119973394988589E-004
          -6.9377287495718174E-005  1.7341729128432290E-004 -1.0450746867117814E-003
          -9.1364267185471432E-004  2.1931495057029341E-003 -7.4974153593147981E-004
          -3.7486942883050518E-004 -4.6684231617080452E-004  8.4666710804152143E-004
           2.1060763657865217E-005 -2.0417310882367879E-003  5.4118364584386383E-004
          -4.9903542056353029E-004 -3.1363535435486778E-005  1.6140518061760869E-003
       &END VELOCITY
     &END REPLICA
     &REPLICA
       &COORD
           6.0230515255692678E+000  2.0752475082130912E+000  8.4781043919346444E-001
           5.7905427514826000E+000  2.8836100376025353E+000  1.4017156547331475E+000
           7.0443353573758563E+000  2.0415217587411978E+000  8.1494786273009745E-001
           5.6166688032481780E+000  1.2470455268795875E+000  1.2273597040641344E+000
           5.5414734423801741E+000  2.3274136779058829E+000 -5.0482000637889524E-001
           6.3384309983548128E+000  2.1347687143621794E+000 -1.2211168108615107E+000
           4.7091844855883176E+000  1.6568665822420563E+000 -6.8925432319027313E-001
           5.0609650776154593E+000  3.7585415621235940E+000 -7.0609226440007911E-001
           3.9502802425911057E+000  3.8817922869881540E+000 -1.2125278832158837E+000
           5.7210208865409511E+000  4.8746408560792167E+000 -3.6426276513164463E-001
           5.3637129116345248E+000  5.7205695103273335E+000 -7.6599118893620777E-001
           6.9192944315155636E+000  5.0910577669684880E+000  4.2029154486281939E-001
           7.3705360528789976E+000  6.0373890366392313E+000  1.3540949642230654E-001
           6.6323864079920458E+000  5.1514934738953935E+000  1.4651942428833462E+000
           7.9189122972397277E+000  3.9954490024578697E+000  1.9522254355521076E-001
           8.2580925986957396E+000  3.3514050928406491E+000  1.2130827401098903E+000
           8.0540785285965182E+000  3.6073516529765226E+000 -9.7965782554394054E-001
       &END COORD
       &VELOCITY
           2.4339906608363191E-004 -2.2659841544654866E-004  4.6313042989109846E-005
           3.9726808640532310E-004 -3.7433807624816397E-004  3.4364973894100454E-004
           1.8996010033880162E-004 -9.1756437162023128E-005 -1.5211105036730453E-004
           5.1330047734966962E-004 -4.5905816603293597E-004 -8.8108259277103860E-005
          -5.2499245157350258E-005  4.8418646464970750E-007  1.5586446529162237E-004
          -2.5956835888329787E-004 -6.3785519766174314E-005 -1.2005801048633035E-004
          -2.2500541905872291E-004  1.2285774207545843E-004  3.8350828381675278E-004
          -2.2799621862396301E-005  5.6177332890381718E-005  1.1959026950177024E-004
           6.7705791531863982E-005  8.8536931461246561E-006 -1.3234414625805287E-004
          -3.4243977195819587E-005  1.2597478136889339E-004  5.5827018278680713E-005
          -3.2467084213597663E-005  1.1736122444255166E-004 -6.7430211979343350E-005
           1.2952253975715442E-004  1.5311892583755315E-004 -1.6184582912306418E-004
           2.8428257717616354E-004 -5.2793951130123372E-005 -6.7077588246333393E-004
           2.8437185689622033E-004  4.7886007240283336E-004 -6.8750970983189256E-005
           1.1788122264024340E-005 -1.8805067601884974E-005 -1.0722934176110165E-004
           1.0288109434030355E-004  8.0303851956780738E-005 -1.5754604053360978E-004
           1.6945841665842498E-005 -2.8898904048782741E-004  1.9871872617923981E-005
       &END VELOCITY
     &END REPLICA
     &REPLICA
       &COORD
           3.5416652861233553E+000  1.5135294170322722E+000  6.9639123031369404E-002
           3.0349200982198274E+000  2.1575677850446211E+000 -5.2155703313391988E-001
           3.1950979485179385E+000  1.5990588039523290E+000  1.0141759431067832E+000
           3.5636946868398782E+000  6.0940617888506321E-001 -3.8026628452256717E-001
           4.9227970046889515E+000  1.9463534389155674E+000  1.2766964993591506E-001
           5.2892462330779795E+000  1.8569939538167768E+000  1.1508083724149167E+000
           5.5277585562090854E+000  1.3228134968352563E+000 -5.3019998898416398E-001
           5.0434227019300977E+000  3.3973941884589052E+000 -3.1663563287062307E-001
           4.0393497069698814E+000  4.0945046865772836E+000 -4.4746519453301425E-001
           6.2766691998112574E+000  3.8509065571328476E+000 -5.4851190790453941E-001
           6.4903307812118385E+000  4.3076682311073915E+000 -1.4243649217267080E+000
           7.3408988334538590E+000  3.7103353987597938E+000  4.2522164718668531E-001
           6.9821997788714647E+000  4.0327336682501311E+000  1.4033434923937815E+000
           7.6499499117481768E+000  2.6670564401817942E+000  4.7624561796049170E-001
           8.5380292272985070E+000  4.5631708750620241E+000  3.0404638315856145E-002
           8.4369792606293750E+000  5.4053780809627687E+000 -8.5902716152324743E-001
           9.6180707566052330E+000  4.4204639638375296E+000  5.9737115625280901E-001
       &END COORD
       &VELOCITY
           0.0000000000000000E+000  0.0000000000000000E+000  0.0000000000000000E+000
           0.0000000000000000E+000  0.0000000000000000E+000  0.0000000000000000E+000
           0.0000000000000000E+000  0.0000000000000000E+000  0.0000000000000000E+000
           0.0000000000000000E+000  0.0000000000000000E+000  0.0000000000000000E+000
           0.0000000000000000E+000  0.0000000000000000E+000  0.0000000000000000E+000
           0.0000000000000000E+000  0.0000000000000000E+000  0.0000000000000000E+000
           0.0000000000000000E+000  0.0000000000000000E+000  0.0000000000000000E+000
           0.0000000000000000E+000  0.0000000000000000E+000  0.0000000000000000E+000
           0.0000000000000000E+000  0.0000000000000000E+000  0.0000000000000000E+000
           0.0000000000000000E+000  0.0000000000000000E+000  0.0000000000000000E+000
           0.0000000000000000E+000  0.0000000000000000E+000  0.0000000000000000E+000
           0.0000000000000000E+000  0.0000000000000000E+000  0.0000000000000000E+000
           0.0000000000000000E+000  0.0000000000000000E+000  0.0000000000000000E+000
           0.0000000000000000E+000  0.0000000000000000E+000  0.0000000000000000E+000
           0.0000000000000000E+000  0.0000000000000000E+000  0.0000000000000000E+000
           0.0000000000000000E+000  0.0000000000000000E+000  0.0000000000000000E+000
           0.0000000000000000E+000  0.0000000000000000E+000  0.0000000000000000E+000
       &END VELOCITY
     &END REPLICA
     &PROGRAM_RUN_INFO SILENT
     &END PROGRAM_RUN_INFO
     &CONVERGENCE_INFO SILENT
     &END CONVERGENCE_INFO
   &END BAND
   &PRINT
     &VELOCITIES OFF
     &END VELOCITIES
   &END PRINT
 &END MOTION
 &FORCE_EVAL
   METHOD FIST
   &MM
     &FORCEFIELD
       PARMTYPE CHM
       PARM_FILE_NAME ./amber/mol.pot
       &SPLINE
         R0_NB  5.2917720859000010E-005
         RCUT_NB  2.0000000000000004E+001
         EMAX_SPLINE  1.0000000000000000E+010
         EMAX_ACCURACY  5.0000000000000000E+002
         EPS_SPLINE  9.9999999999999995E-007
       &END SPLINE
     &END FORCEFIELD
     &POISSON
       &EWALD
         EWALD_TYPE EWALD
         ALPHA  3.5999999999999999E-001
         GMAX 29
       &END EWALD
     &END POISSON
     &PRINT
       &FF_INFO SILENT
         SPLINE_INFO T
       &END FF_INFO
     &END PRINT
   &END MM
   &SUBSYS
     &CELL
       A  3.0000000000000007E+001  0.0000000000000000E+000  0.0000000000000000E+000
       B  0.0000000000000000E+000  3.0000000000000007E+001  0.0000000000000000E+000
       C  0.0000000000000000E+000  0.0000000000000000E+000  3.0000000000000007E+001
       MULTIPLE_UNIT_CELL 1 1 1
     &END CELL
     &COORD
       N3  3.3290000000000006E+000  1.5780000000000003E+000 -2.8199999999999997E-001
       H11  4.0149999999999997E+000  9.6499999999999997E-001 -7.0000000000000007E-001
       H11  2.6180000000000003E+000  1.7849999999999999E+000 -9.6900000000000008E-001
       H11  3.0670000000000002E+000  1.2050000000000001E+000  6.1899999999999999E-001
       CT1  3.9700000000000006E+000  2.8460000000000001E+000  0.0000000000000000E+000
       HP  3.6899999999999999E+000  3.5730000000000000E+000 -7.6200000000000001E-001
       HP  3.6509999999999998E+000  3.2050000000000001E+000  9.7899999999999998E-001
       C1  5.4840000000000000E+000  2.6870000000000003E+000  0.0000000000000000E+000
       O  5.9930000000000012E+000  1.5680000000000001E+000  0.0000000000000000E+000
       N  6.2030000000000012E+000  3.8110000000000004E+000  0.0000000000000000E+000
       H2  5.7450000000000001E+000  4.7030000000000003E+000 -1.2200000000000000E-001
       CT2  7.6420000000000003E+000  3.7999999999999998E+000  1.7100000000000001E-001
       H12  7.8830000000000000E+000  3.5540000000000003E+000  1.2050000000000001E+000
       H12  8.0809999999999995E+000  3.0550000000000006E+000 -4.9200000000000005E-001
       C2  8.2270000000000003E+000  5.1660000000000013E+000 -1.6200000000000003E-001
       O2  7.5410000000000004E+000  6.0170000000000003E+000 -7.2399999999999998E-001
       O2  9.3910000000000018E+000  5.4320000000000004E+000  1.2600000000000000E-001
     &END COORD
     &TOPOLOGY
       CHARGE_BETA T
       COORD_FILE_NAME ./amber/mol.pdb
       COORD_FILE_FORMAT PDB
       NUMBER_OF_ATOMS 17
       CONN_FILE_NAME ./amber/mol.psf
       CONN_FILE_FORMAT UPSF
       MULTIPLE_UNIT_CELL 1 1 1
     &END TOPOLOGY
   &END SUBSYS
 &END FORCE_EVAL
