 # Version information for this restart file 
 # current date 2026-04-22 11:54:42.131
 # current working dir /DATA/lab07/hglee/cp2k_agent/test/level7
 # Program compiled at                                       2026-03-01 16:41:12
 # Program compiled on                                                    master
 # Program compiled for                                                   x86_64
 # Source code revision number                                       git:5e54ba2
 &GLOBAL
   PRINT_LEVEL LOW
   PROJECT_NAME "2gly_B-NEB-r-0"
   OUTPUT_FILE_NAME 2gly_B-NEB-r-0.out
   RUN_TYPE BAND
 &END GLOBAL
 &MOTION
   &BAND
     NPROC_REP 1
     BAND_TYPE B-NEB
     NUMBER_OF_REPLICA 5
     ROTATE_FRAMES T
     K_SPRING  5.0000000000000003E-002
     &CONVERGENCE_CONTROL
       MAX_FORCE  1.0000000000000000E-003
       RMS_FORCE  5.0000000000000001E-004
     &END CONVERGENCE_CONTROL
     &OPTIMIZE_BAND
       OPT_TYPE MD
       &MD
         MAX_STEPS 20
         TIMESTEP  4.9999999999999994E-001
         TEMPERATURE  1.0000000000000001E+002
         &VEL_CONTROL
           ANNEALING  9.4999999999999996E-001
           PROJ_VELOCITY_VERLET T
         &END VEL_CONTROL
       &END MD
     &END OPTIMIZE_BAND
     &REPLICA
       &COORD
           3.3290000000000006E+000  1.5780000000000003E+000 -2.8199999999999997E-001
           4.0149999999999997E+000  9.6499999999999997E-001 -7.0000000000000007E-001
           2.6180000000000003E+000  1.7849999999999999E+000 -9.6900000000000008E-001
           3.0670000000000002E+000  1.2050000000000001E+000  6.1899999999999999E-001
           3.9700000000000006E+000  2.8460000000000001E+000  0.0000000000000000E+000
           3.6899999999999999E+000  3.5730000000000000E+000 -7.6200000000000001E-001
           3.6509999999999998E+000  3.2050000000000001E+000  9.7899999999999998E-001
           5.4840000000000000E+000  2.6870000000000003E+000  0.0000000000000000E+000
           5.9930000000000012E+000  1.5680000000000001E+000  0.0000000000000000E+000
           6.2030000000000012E+000  3.8110000000000004E+000  0.0000000000000000E+000
           5.7450000000000001E+000  4.7030000000000003E+000 -1.2200000000000000E-001
           7.6420000000000003E+000  3.7999999999999998E+000  1.7100000000000001E-001
           7.8830000000000000E+000  3.5540000000000003E+000  1.2050000000000001E+000
           8.0809999999999995E+000  3.0550000000000006E+000 -4.9200000000000005E-001
           8.2270000000000003E+000  5.1660000000000013E+000 -1.6200000000000003E-001
           7.5410000000000004E+000  6.0170000000000003E+000 -7.2399999999999998E-001
           9.3910000000000018E+000  5.4320000000000004E+000  1.2600000000000000E-001
       &END COORD
       &VELOCITY
           0.0000000000000000E+000  0.0000000000000000E+000  0.0000000000000000E+000
           0.0000000000000000E+000  0.0000000000000000E+000  0.0000000000000000E+000
           0.0000000000000000E+000  0.0000000000000000E+000  0.0000000000000000E+000
           0.0000000000000000E+000  0.0000000000000000E+000  0.0000000000000000E+000
           0.0000000000000000E+000  0.0000000000000000E+000  0.0000000000000000E+000
           0.0000000000000000E+000  0.0000000000000000E+000  0.0000000000000000E+000
           0.0000000000000000E+000  0.0000000000000000E+000  0.0000000000000000E+000
           0.0000000000000000E+000  0.0000000000000000E+000  0.0000000000000000E+000
           0.0000000000000000E+000  0.0000000000000000E+000  0.0000000000000000E+000
           0.0000000000000000E+000  0.0000000000000000E+000  0.0000000000000000E+000
           0.0000000000000000E+000  0.0000000000000000E+000  0.0000000000000000E+000
           0.0000000000000000E+000  0.0000000000000000E+000  0.0000000000000000E+000
           0.0000000000000000E+000  0.0000000000000000E+000  0.0000000000000000E+000
           0.0000000000000000E+000  0.0000000000000000E+000  0.0000000000000000E+000
           0.0000000000000000E+000  0.0000000000000000E+000  0.0000000000000000E+000
           0.0000000000000000E+000  0.0000000000000000E+000  0.0000000000000000E+000
           0.0000000000000000E+000  0.0000000000000000E+000  0.0000000000000000E+000
       &END VELOCITY
     &END REPLICA
     &REPLICA
       &COORD
           3.4575214735600706E+000  1.9529539698683906E+000 -8.0718793779183573E-001
           3.4935160096323261E+000  1.7869295836933814E+000 -1.7985308045069923E+000
           3.3634767194015192E+000  2.9457665948033758E+000 -6.3930420331785109E-001
           2.7912741275767434E+000  1.3224087113948495E+000 -3.9180013393980256E-001
           4.7404575712687338E+000  1.5929109460067714E+000 -2.3963216608863899E-001
           4.5882196696439026E+000  9.6452735339806239E-001  6.4180168816693950E-001
           5.3216449091601703E+000  1.0408879578740013E+000 -9.7905897811958886E-001
           5.5073244808625486E+000  2.8457385123753483E+000  1.6896699008601826E-001
           5.1576294728923440E+000  3.4950681161303470E+000  1.1538403371204802E+000
           6.5580526483926880E+000  3.1692331766365900E+000 -5.8332363988568825E-001
           6.4818906874628688E+000  3.1889629147465550E+000 -1.5912643171812260E+000
           7.8411042154329849E+000  3.5058889188267819E+000 -2.0847145565792485E-003
           7.8454903900157262E+000  3.2322388936702064E+000  1.0514070122598314E+000
           8.6295562502886511E+000  2.9575853961369689E+000 -5.2081794429675032E-001
           8.1119848856628209E+000  4.9996470818783676E+000 -1.3086411417155236E-001
           7.4916939929006849E+000  5.8055326967471927E+000  5.6113014464885047E-001
           8.9560955772005553E+000  5.4072684901764614E+000 -9.3164588036549478E-001
       &END COORD
       &VELOCITY
           1.6024614405061471E-004 -6.3985607389818351E-005 -6.6677940789019129E-005
           1.4326139828435248E-005  2.5788070097066529E-005  3.9302297984159419E-005
           4.3383702862960529E-005 -7.4685512701719900E-005  1.7099515406341463E-004
          -4.0002805694132200E-005  1.9694576878655749E-004 -5.7134068672267504E-005
           1.5352817974227943E-004 -7.4413093432477240E-006  3.6228774203931676E-005
           4.8821922039449908E-006 -3.9941971546286105E-005  8.6569986955492949E-005
           9.2276645905036442E-005 -9.4590979680373867E-005  2.6853124185572584E-005
           4.2574852374826933E-005  1.5358621881935534E-004 -4.5148103223736222E-005
          -1.1171676666523938E-004 -3.8396767287301325E-005  1.3119678455414300E-005
          -2.6572534727733195E-005  3.7949688006148891E-005 -7.6244568268274434E-005
           2.3222102358267088E-004 -1.2242469697222111E-004 -7.1258656655878762E-005
           2.7697192329517414E-005  5.4276235504136788E-005 -4.2920856478920564E-005
           2.8491008051998313E-005 -7.2819611727633699E-005 -4.5242288681922874E-005
          -7.8201939583487527E-006 -3.0193577621465949E-006 -4.3942920123080085E-005
          -9.3659557977001649E-007  6.1647401153797681E-005 -1.8009422625735444E-006
          -2.1969100999705158E-004 -1.2616611419682513E-004  2.3067455573787366E-004
           1.0407610661974042E-005 -1.7555302084597369E-004 -2.3242887116494792E-004
       &END VELOCITY
     &END REPLICA
     &REPLICA
       &COORD
           4.7004732863178207E+000  1.1683334701251165E+000 -2.3409173188332968E-001
           3.9941127284116091E+000  5.9639859061382383E-001  2.0007117850312575E-001
           5.6192838648620596E+000  6.8606472836699794E-001 -1.6204549707446878E-001
           4.4221422798939169E+000  1.4920479089575205E+000 -1.1525434804921095E+000
           4.7997710188513345E+000  2.3850621601590425E+000  5.5714579767992056E-001
           3.8270483559277069E+000  2.6649594809341952E+000  9.3176737479710892E-001
           5.4797323873992791E+000  2.2084415279289940E+000  1.3881583701269558E+000
           5.3102066307855260E+000  3.5425117180946928E+000 -2.8822839543429124E-001
           4.8065686002615866E+000  4.6544299031611569E+000 -1.8077819693199465E-001
           6.2945625044532436E+000  3.2677200799322694E+000 -1.1337747041731592E+000
           6.0735046837732369E+000  3.0336950769990740E+000 -2.0746235687182786E+000
           7.6847149689709644E+000  3.3325351309665350E+000 -7.4022786400318796E-001
           7.9488493647709602E+000  2.4559291015438651E+000 -1.8796994593342803E-001
           8.2987464228365262E+000  3.4093043991316456E+000 -1.6115649990987158E+000
           7.9421648837316665E+000  4.5467565712882383E+000  1.2897573217723637E-001
           8.6715739027692997E+000  4.4401330216424864E+000  1.1262468104825962E+000
           7.4195895294454912E+000  5.6227782377461635E+000 -1.7605089831035120E-001
       &END COORD
       &VELOCITY
           1.3261608281214228E-003 -3.8252899486814580E-004  9.5622320138785872E-004
           1.1619595229833322E-003  9.8657619174456472E-005  1.5435136363784554E-003
           1.4694921663320421E-003 -4.3719956013970126E-004  1.1749327724054119E-004
           1.7450730339805469E-003 -3.4215649637437106E-004  3.0913257620826621E-004
           4.2088147787664750E-004  6.0876725938821725E-004  5.0925745796542712E-005
           3.5673525381240724E-004  9.1593846144964579E-004 -7.9483045043139797E-004
          -2.7191408567357734E-004  5.8661776411245115E-004  5.1354822405935143E-004
          -3.8104764102061286E-005  5.8884154213876150E-004 -1.0309473866896096E-004
          -9.2484211923101530E-004  1.2791037139130141E-004 -8.9893039552042082E-004
          -2.6775089953821684E-004  6.1159826395415864E-004  2.1296669503652839E-004
          -3.4959865225281579E-004  1.2887124356638509E-003  2.7085447587076495E-004
          -4.5062859677319435E-004  6.3086685894651624E-004  1.9317462811547362E-004
          -7.9857730165310584E-005  6.9116625740318796E-004 -2.8803080154917311E-004
          -6.0277717966096501E-004  8.1225279143739854E-004  4.5902066988704577E-004
           6.9123165422818220E-005 -8.3407409384982765E-005  3.4300799045591703E-004
           5.0644378194356153E-004 -1.6494764042108798E-003  1.9735856996182087E-004
          -7.4162986039110780E-004 -3.9126391520800171E-004 -3.3797557844746025E-004
       &END VELOCITY
     &END REPLICA
     &REPLICA
       &COORD
           6.1418379410617074E+000  1.8822117771974465E+000  4.6477429421733801E-001
           6.0224899779100012E+000  2.5453466072663398E+000  1.2150463461370975E+000
           7.1416792331248091E+000  1.8892878094898946E+000  2.5919151643526350E-001
           5.7938337728397293E+000  9.7244194581582122E-001  6.9032722494617960E-001
           5.4644934382949861E+000  2.4445841818901037E+000 -6.9570607516561334E-001
           6.1527739950283689E+000  2.4551305532961982E+000 -1.5416840293822551E+000
           4.6135189657946070E+000  1.8138359152151260E+000 -9.3287341990762795E-001
           4.9776688465056713E+000  3.8691659971143539E+000 -4.1946478558410266E-001
           3.7924357416302490E+000  4.0754331357768825E+000 -6.6190129286036203E-001
           5.7060510720229045E+000  4.8830396608719617E+000  8.6655706657904341E-002
           5.3089257259648859E+000  5.7992956156480489E+000 -6.6637489252262443E-003
           7.0209133952446576E+000  4.9168629262474122E+000  6.9386260815563294E-001
           7.4194313994752825E+000  5.9273767429825615E+000  6.2846797345019456E-001
           6.9112037089254370E+000  4.6694787307044239E+000  1.7467761459782634E+000
           7.9615319003440552E+000  3.9608227741009903E+000  6.2101040849383759E-003
           8.4566691927918534E+000  3.0824304565529337E+000  7.4095526566694236E-001
           7.9031025813849505E+000  3.8805833432850538E+000 -1.2334244891483965E+000
       &END COORD
       &VELOCITY
           1.6961491161419175E-004  1.7426853384931883E-006 -7.1448601535564697E-005
           1.1259067449111066E-004 -2.3592144674379373E-004  8.5862915518669189E-005
           1.9621614932877529E-004 -6.5148551825931108E-005 -9.2093454318802035E-005
           1.3235183388096022E-004  2.5639725249200481E-005 -4.9924869339680055E-005
           5.1420598598004076E-005  8.5345851499659618E-005  1.1261240612227887E-004
          -1.7037395567910877E-004  1.2489807661266879E-004 -1.2243587207656973E-006
          -4.1372101427336219E-005  6.1226185994196227E-005  2.3700292077290767E-004
           2.7774096271922833E-005 -9.7457242304554654E-006 -2.8901272125908443E-005
           6.7591452549503063E-005  5.8446477601017622E-005 -3.9612428645715568E-005
           2.2929324997377118E-005 -1.0109294523893481E-004 -5.1704227697731186E-005
          -6.4596864113224581E-005 -1.0569715342672216E-004 -6.1852374716837234E-005
           3.2388982094411521E-005  3.2612798117462222E-006 -1.1527336032945736E-004
           8.8730732142735082E-005 -6.4181469714199313E-005 -2.3185983758597351E-004
           8.7409300214710313E-005  1.3674656992046342E-004 -9.0871978953557179E-005
          -4.7147743167860138E-005 -3.2593899315871221E-005  2.5313220698940886E-005
           1.0563669588393204E-005 -1.0334223187916045E-004  1.4579439308276741E-004
          -2.2002788884557226E-004  1.1099163544895686E-004 -4.8723792554762000E-005
       &END VELOCITY
     &END REPLICA
     &REPLICA
       &COORD
           3.5753293333197131E+000  1.4646244547998883E+000 -1.3600681781233072E-003
           2.9848951712417264E+000  2.2276724839007871E+000 -3.0175015712331604E-001
           3.4033267551595165E+000  1.2875084915982098E+000  9.7773086155485556E-001
           3.4991934630368622E+000  7.1271129403767830E-001 -6.7156073061352850E-001
           4.9532961981947370E+000  1.9051475152358213E+000 -7.4679591708066748E-002
           5.4933073589693278E+000  1.5586017355369095E+000  8.0701024537283816E-001
           5.4195455336379545E+000  1.4950335303489783E+000 -9.7021913667467119E-001
           5.0223798121562995E+000  3.4248170532759463E+000 -1.3220306026590545E-001
           4.0251884934085469E+000  4.1033245756903742E+000  1.0545008160509033E-001
           6.2038952746703497E+000  3.9578365854501731E+000 -4.4882332203224140E-001
           6.2681566571030682E+000  4.6358160372396959E+000 -1.1955597800139137E+000
           7.4207341153468507E+000  3.5945184657399989E+000  2.4960718969482476E-001
           7.2474909647513277E+000  3.6365127984415309E+000  1.3255027639922059E+000
           7.7129601141521045E+000  2.5839795171001296E+000 -3.3168337718883507E-002
           8.5458558503449744E+000  4.5545666741645556E+000 -1.0919431383549222E-001
           8.3057672736208001E+000  5.5988898941046772E+000 -7.1115734228529470E-001
           9.7061624731949276E+000  4.2972377334991343E+000  2.0028324151634458E-001
       &END COORD
       &VELOCITY
           0.0000000000000000E+000  0.0000000000000000E+000  0.0000000000000000E+000
           0.0000000000000000E+000  0.0000000000000000E+000  0.0000000000000000E+000
           0.0000000000000000E+000  0.0000000000000000E+000  0.0000000000000000E+000
           0.0000000000000000E+000  0.0000000000000000E+000  0.0000000000000000E+000
           0.0000000000000000E+000  0.0000000000000000E+000  0.0000000000000000E+000
           0.0000000000000000E+000  0.0000000000000000E+000  0.0000000000000000E+000
           0.0000000000000000E+000  0.0000000000000000E+000  0.0000000000000000E+000
           0.0000000000000000E+000  0.0000000000000000E+000  0.0000000000000000E+000
           0.0000000000000000E+000  0.0000000000000000E+000  0.0000000000000000E+000
           0.0000000000000000E+000  0.0000000000000000E+000  0.0000000000000000E+000
           0.0000000000000000E+000  0.0000000000000000E+000  0.0000000000000000E+000
           0.0000000000000000E+000  0.0000000000000000E+000  0.0000000000000000E+000
           0.0000000000000000E+000  0.0000000000000000E+000  0.0000000000000000E+000
           0.0000000000000000E+000  0.0000000000000000E+000  0.0000000000000000E+000
           0.0000000000000000E+000  0.0000000000000000E+000  0.0000000000000000E+000
           0.0000000000000000E+000  0.0000000000000000E+000  0.0000000000000000E+000
           0.0000000000000000E+000  0.0000000000000000E+000  0.0000000000000000E+000
       &END VELOCITY
     &END REPLICA
     &PROGRAM_RUN_INFO SILENT
     &END PROGRAM_RUN_INFO
     &CONVERGENCE_INFO SILENT
     &END CONVERGENCE_INFO
   &END BAND
   &PRINT
     &VELOCITIES OFF
     &END VELOCITIES
   &END PRINT
 &END MOTION
 &FORCE_EVAL
   METHOD FIST
   &MM
     &FORCEFIELD
       PARMTYPE CHM
       PARM_FILE_NAME ./amber/mol.pot
       &SPLINE
         R0_NB  5.2917720859000010E-005
         RCUT_NB  2.0000000000000004E+001
         EMAX_SPLINE  1.0000000000000000E+010
         EMAX_ACCURACY  5.0000000000000000E+002
         EPS_SPLINE  9.9999999999999995E-007
       &END SPLINE
     &END FORCEFIELD
     &POISSON
       &EWALD
         EWALD_TYPE EWALD
         ALPHA  3.5999999999999999E-001
         GMAX 29
       &END EWALD
     &END POISSON
     &PRINT
       &FF_INFO SILENT
         SPLINE_INFO T
       &END FF_INFO
     &END PRINT
   &END MM
   &SUBSYS
     &CELL
       A  3.0000000000000007E+001  0.0000000000000000E+000  0.0000000000000000E+000
       B  0.0000000000000000E+000  3.0000000000000007E+001  0.0000000000000000E+000
       C  0.0000000000000000E+000  0.0000000000000000E+000  3.0000000000000007E+001
       MULTIPLE_UNIT_CELL 1 1 1
     &END CELL
     &COORD
       N3  3.3290000000000006E+000  1.5780000000000003E+000 -2.8199999999999997E-001
       H11  4.0149999999999997E+000  9.6499999999999997E-001 -7.0000000000000007E-001
       H11  2.6180000000000003E+000  1.7849999999999999E+000 -9.6900000000000008E-001
       H11  3.0670000000000002E+000  1.2050000000000001E+000  6.1899999999999999E-001
       CT1  3.9700000000000006E+000  2.8460000000000001E+000  0.0000000000000000E+000
       HP  3.6899999999999999E+000  3.5730000000000000E+000 -7.6200000000000001E-001
       HP  3.6509999999999998E+000  3.2050000000000001E+000  9.7899999999999998E-001
       C1  5.4840000000000000E+000  2.6870000000000003E+000  0.0000000000000000E+000
       O  5.9930000000000012E+000  1.5680000000000001E+000  0.0000000000000000E+000
       N  6.2030000000000012E+000  3.8110000000000004E+000  0.0000000000000000E+000
       H2  5.7450000000000001E+000  4.7030000000000003E+000 -1.2200000000000000E-001
       CT2  7.6420000000000003E+000  3.7999999999999998E+000  1.7100000000000001E-001
       H12  7.8830000000000000E+000  3.5540000000000003E+000  1.2050000000000001E+000
       H12  8.0809999999999995E+000  3.0550000000000006E+000 -4.9200000000000005E-001
       C2  8.2270000000000003E+000  5.1660000000000013E+000 -1.6200000000000003E-001
       O2  7.5410000000000004E+000  6.0170000000000003E+000 -7.2399999999999998E-001
       O2  9.3910000000000018E+000  5.4320000000000004E+000  1.2600000000000000E-001
     &END COORD
     &TOPOLOGY
       CHARGE_BETA T
       COORD_FILE_NAME ./amber/mol.pdb
       COORD_FILE_FORMAT PDB
       NUMBER_OF_ATOMS 17
       CONN_FILE_NAME ./amber/mol.psf
       CONN_FILE_FORMAT UPSF
       MULTIPLE_UNIT_CELL 1 1 1
     &END TOPOLOGY
   &END SUBSYS
 &END FORCE_EVAL
