 # Version information for this restart file 
 # current date 2026-04-22 11:54:42.177
 # current working dir /DATA/lab07/hglee/cp2k_agent/test/level7
 # Program compiled at                                       2026-03-01 16:41:12
 # Program compiled on                                                    master
 # Program compiled for                                                   x86_64
 # Source code revision number                                       git:5e54ba2
 &GLOBAL
   PRINT_LEVEL LOW
   PROJECT_NAME "2gly_B-NEB-r-0"
   OUTPUT_FILE_NAME 2gly_B-NEB-r-0.out
   RUN_TYPE BAND
 &END GLOBAL
 &MOTION
   &BAND
     NPROC_REP 1
     BAND_TYPE B-NEB
     NUMBER_OF_REPLICA 5
     ROTATE_FRAMES T
     K_SPRING  5.0000000000000003E-002
     &CONVERGENCE_CONTROL
       MAX_FORCE  1.0000000000000000E-003
       RMS_FORCE  5.0000000000000001E-004
     &END CONVERGENCE_CONTROL
     &OPTIMIZE_BAND
       OPT_TYPE MD
       &MD
         MAX_STEPS 20
         TIMESTEP  4.9999999999999994E-001
         TEMPERATURE  1.0000000000000001E+002
         &VEL_CONTROL
           ANNEALING  9.4999999999999996E-001
           PROJ_VELOCITY_VERLET T
         &END VEL_CONTROL
       &END MD
     &END OPTIMIZE_BAND
     &REPLICA
       &COORD
           3.3290000000000006E+000  1.5780000000000003E+000 -2.8199999999999997E-001
           4.0149999999999997E+000  9.6499999999999997E-001 -7.0000000000000007E-001
           2.6180000000000003E+000  1.7849999999999999E+000 -9.6900000000000008E-001
           3.0670000000000002E+000  1.2050000000000001E+000  6.1899999999999999E-001
           3.9700000000000006E+000  2.8460000000000001E+000  0.0000000000000000E+000
           3.6899999999999999E+000  3.5730000000000000E+000 -7.6200000000000001E-001
           3.6509999999999998E+000  3.2050000000000001E+000  9.7899999999999998E-001
           5.4840000000000000E+000  2.6870000000000003E+000  0.0000000000000000E+000
           5.9930000000000012E+000  1.5680000000000001E+000  0.0000000000000000E+000
           6.2030000000000012E+000  3.8110000000000004E+000  0.0000000000000000E+000
           5.7450000000000001E+000  4.7030000000000003E+000 -1.2200000000000000E-001
           7.6420000000000003E+000  3.7999999999999998E+000  1.7100000000000001E-001
           7.8830000000000000E+000  3.5540000000000003E+000  1.2050000000000001E+000
           8.0809999999999995E+000  3.0550000000000006E+000 -4.9200000000000005E-001
           8.2270000000000003E+000  5.1660000000000013E+000 -1.6200000000000003E-001
           7.5410000000000004E+000  6.0170000000000003E+000 -7.2399999999999998E-001
           9.3910000000000018E+000  5.4320000000000004E+000  1.2600000000000000E-001
       &END COORD
       &VELOCITY
           0.0000000000000000E+000  0.0000000000000000E+000  0.0000000000000000E+000
           0.0000000000000000E+000  0.0000000000000000E+000  0.0000000000000000E+000
           0.0000000000000000E+000  0.0000000000000000E+000  0.0000000000000000E+000
           0.0000000000000000E+000  0.0000000000000000E+000  0.0000000000000000E+000
           0.0000000000000000E+000  0.0000000000000000E+000  0.0000000000000000E+000
           0.0000000000000000E+000  0.0000000000000000E+000  0.0000000000000000E+000
           0.0000000000000000E+000  0.0000000000000000E+000  0.0000000000000000E+000
           0.0000000000000000E+000  0.0000000000000000E+000  0.0000000000000000E+000
           0.0000000000000000E+000  0.0000000000000000E+000  0.0000000000000000E+000
           0.0000000000000000E+000  0.0000000000000000E+000  0.0000000000000000E+000
           0.0000000000000000E+000  0.0000000000000000E+000  0.0000000000000000E+000
           0.0000000000000000E+000  0.0000000000000000E+000  0.0000000000000000E+000
           0.0000000000000000E+000  0.0000000000000000E+000  0.0000000000000000E+000
           0.0000000000000000E+000  0.0000000000000000E+000  0.0000000000000000E+000
           0.0000000000000000E+000  0.0000000000000000E+000  0.0000000000000000E+000
           0.0000000000000000E+000  0.0000000000000000E+000  0.0000000000000000E+000
           0.0000000000000000E+000  0.0000000000000000E+000  0.0000000000000000E+000
       &END VELOCITY
     &END REPLICA
     &REPLICA
       &COORD
           3.5053407936728878E+000  1.9007525757316348E+000 -8.4294667827320346E-001
           3.5846524202418544E+000  1.6717868761993653E+000 -1.8143116176701626E+000
           3.3990130144417088E+000  2.9006042195477511E+000 -7.3536696610079044E-001
           2.8065132437381717E+000  1.3132219817476407E+000 -4.2428846176847240E-001
           4.7556760264947471E+000  1.5851390858558669E+000 -1.8165470864899286E-001
           4.5488416857435574E+000  1.0170405509155080E+000  7.3450995513084172E-001
           5.3720211043077049E+000  9.7991683663854667E-001 -8.5018058391313067E-001
           5.4947457382761851E+000  2.8731306538912622E+000  1.7384905184338398E-001
           5.0870779383622615E+000  3.5792267713686754E+000  1.0960035252518556E+000
           6.5824238340588268E+000  3.1418091726351971E+000 -5.4470332358094997E-001
           6.5736117835782997E+000  3.0803542496335758E+000 -1.5539302744842902E+000
           7.8349393359592376E+000  3.5199936716003681E+000  8.0210508874406589E-002
           7.7847486635296725E+000  3.3115019032177191E+000  1.1482001125216210E+000
           8.6471113350925268E+000  2.9368343345178309E+000 -3.5853107084528529E-001
           8.1124592070470314E+000  5.0026843027051573E+000 -1.3338218984431144E-001
           7.4469636258465632E+000  5.8421301207839909E+000  4.8120771010888230E-001
           8.9977647053159160E+000  5.3430066590705279E+000 -9.2700008217028063E-001
       &END COORD
       &VELOCITY
           3.2156035302757351E-004 -6.8358555310112277E-005 -5.7342681652225214E-006
           6.3782095917507559E-005  2.3810023472949567E-005  1.3555936635263030E-005
           2.0448704567298519E-004 -1.3739827188486556E-004  2.7848251544815056E-004
           3.7190766050003624E-006  2.5994584935550935E-004 -1.5334102190979861E-004
           2.8422976888521211E-004 -5.9717825323298782E-005  9.3934829066263950E-005
           4.7649081839582499E-005 -4.8668719591647000E-005  1.3966149777955224E-004
           2.1376896453108698E-004 -1.5833086720127719E-004  8.4626352578471301E-005
           1.4657321494521643E-005  2.1040638002530840E-004 -1.0235097347161386E-004
          -2.2193423769289295E-004  4.6338953030345968E-005 -7.9413841446161300E-007
           5.1968372819938659E-005  1.1519615853304242E-004 -1.7044868069479615E-004
           3.5868617894690090E-004 -2.7989018254233279E-004 -1.5722924730326803E-004
           2.7203206157553712E-005  5.8280689697748983E-005 -9.8225537694408938E-005
           4.4382712141845768E-005 -1.3189052132568411E-004 -1.1287818891003186E-004
           2.2719611508576813E-007  1.8589889960403577E-005 -9.5540926650515906E-005
          -3.7018582333458381E-005  6.1412341622016280E-005  1.1479966186520858E-005
          -3.0352666335830886E-004 -2.9530965322310549E-004  3.9758638525424101E-004
          -1.0523996289094042E-004 -3.1161086524658524E-004 -3.6252333052663759E-004
       &END VELOCITY
     &END REPLICA
     &REPLICA
       &COORD
           4.7790713680051207E+000  1.1489328352435038E+000 -1.2032459030147401E-001
           4.0497499839297815E+000  6.2561528338749328E-001  3.5434087493916100E-001
           5.7034206396727329E+000  6.6598567761698435E-001 -1.4194562176482035E-002
           4.5699010400365658E+000  1.4094385882442879E+000 -1.0858062455004036E+000
           4.7964853150090354E+000  2.4505212171273691E+000  5.5556468118920321E-001
           3.8043191634166362E+000  2.7694715891621331E+000  8.1963278125475902E-001
           5.3977790473858684E+000  2.3336787530798029E+000  1.4500627732608793E+000
           5.3149236405169962E+000  3.5603169801820536E+000 -3.3760152406849503E-001
           4.7622894652329544E+000  4.6514215794907399E+000 -3.6313953079558176E-001
           6.3254727470677592E+000  3.2432598229235015E+000 -1.1093090256612130E+000
           6.1382767581829727E+000  3.0021140967375559E+000 -2.0468906566421134E+000
           7.6871390248151261E+000  3.3328892096906491E+000 -6.6029608737934176E-001
           7.9461180790056503E+000  2.4923394390495370E+000 -7.3511569339270041E-002
           8.3285393135968881E+000  3.3792961192165678E+000 -1.4961694414191677E+000
           7.9315512388189768E+000  4.5565979723778165E+000  1.6022089878889559E-001
           8.6376725397819953E+000  4.4309662855610865E+000  1.1862062986439499E+000
           7.3896496492530037E+000  5.5949465093160224E+000 -2.5619534337484196E-001
       &END COORD
       &VELOCITY
           2.3420839280978594E-003 -2.2770066428362982E-004  1.5258631806051805E-003
           2.0823698370498714E-003  3.7800759800864036E-004  2.3513927702629267E-003
           2.1941271057009134E-003 -3.5807229351985824E-004  7.3351269782219344E-004
           2.7058680466494050E-003 -7.6404500698174730E-004  1.1179220553692469E-003
           8.3267339377554486E-004  7.9889725014456318E-004  1.1198351122372422E-004
           5.3458598644278885E-004  1.1957444309930710E-003 -1.3510507248863013E-003
          -3.9689039927724918E-004  1.2678968194338351E-003  7.8641106408102791E-004
          -2.0776396685584565E-004  9.4244408974663522E-004 -6.3873902489847099E-005
          -1.6625857517507687E-003  2.0004055368494670E-004 -1.7287591224033501E-003
          -4.4729888446634803E-004  1.0231113927794998E-003  1.8977468897761653E-004
          -5.7997822908557471E-004  2.3220676476794393E-003 -2.0085243879286823E-005
          -6.7658458193504284E-004  9.2824435890384506E-004  1.9594555882204598E-004
          -1.2392360824489373E-004  8.3457055937227363E-004 -4.4311651186426377E-004
          -8.5259580997935533E-004  1.4709673471849458E-003  3.2508881953385231E-004
          -6.6513230132016367E-005 -2.7311019948374719E-004  5.7380134848696214E-004
           4.9219908813819772E-004 -2.3169242711228036E-003  1.9071478121862639E-004
          -7.8045630978720816E-004 -6.6949990694700138E-004  1.0951258317396347E-004
       &END VELOCITY
     &END REPLICA
     &REPLICA
       &COORD
           6.1154196380437043E+000  1.9240619505866527E+000  5.6792994517224149E-001
           5.9613327952324058E+000  2.6250984905086661E+000  1.2745903347165630E+000
           7.1247976014603536E+000  1.9120548267147106E+000  4.0766170559936660E-001
           5.7502973783432960E+000  1.0345389472459399E+000  8.3726475572696479E-001
           5.4872130656208853E+000  2.4131479844062387E+000 -6.5081095931499366E-001
           6.2036482134128699E+000  2.3679973644499213E+000 -1.4691435680311384E+000
           4.6409586090299833E+000  1.7710415283559033E+000 -8.7540411915845062E-001
           4.9963855032840856E+000  3.8500230520531775E+000 -5.0124463903137417E-001
           3.8268839338711786E+000  4.0456559172922777E+000 -8.1488962091347250E-001
           5.7053113090263681E+000  4.8906661631735409E+000 -3.2621126020947910E-002
           5.3135346135269126E+000  5.7968133579941901E+000 -2.0782516374564453E-001
           6.9914167524069670E+000  4.9664411505981985E+000  6.2876160457138675E-001
           7.4021677384130093E+000  5.9651360228597534E+000  5.0549868932767206E-001
           6.8342688273906020E+000  4.7999860771030693E+000  1.6900836406887543E+000
           7.9538065032712737E+000  3.9605455479141538E+000  5.9928588539870632E-002
           8.4104356907059543E+000  3.1328786002000006E+000  8.8025361952683701E-001
           7.9438744688778806E+000  3.8049190313236436E+000 -1.1759485064109281E+000
       &END COORD
       &VELOCITY
           3.4089919607002629E-004 -8.7182930908458127E-005 -5.7404286313780737E-005
           2.4960579832184311E-004 -3.6874370800082901E-004  2.0524513045747900E-004
           3.1566340897926017E-004 -1.1270368055160759E-004 -1.5022724539463689E-004
           2.7830333866338692E-004 -4.2580732574095016E-005 -1.1858582401720906E-004
           1.3441481576389313E-005  7.2685741408431650E-005  1.5332892331988379E-004
          -2.6926542536484809E-004  1.9308074283807048E-004 -7.8802083793748330E-005
          -8.3336095729775157E-005  1.4712130062420579E-004  4.3250074088190850E-004
           4.0028169556721077E-005 -4.5369884091796740E-006  9.2311657763572634E-006
           9.5922236675949110E-005  9.4245395236733007E-005 -1.0959389963317414E-004
           3.3392504609836895E-005 -7.1129138028463106E-005 -5.5439824637921170E-005
          -9.1886375799314973E-005 -1.5878633947599043E-004 -1.0162664156355089E-004
           8.4859703877628324E-005  3.0960619757100543E-006 -1.7359503154277173E-004
           1.8598946062524802E-004 -9.8278840578284614E-005 -4.5135326431694093E-004
           1.6432941041932147E-004  2.5753323757936038E-004 -1.3956930683516110E-004
          -6.0539140016578251E-005 -1.1622437358499343E-004  2.1412374303711426E-005
          -1.3259778611452122E-005 -5.6458842677461739E-005  1.1295794938833194E-004
          -3.2227153325559946E-004  1.1665492721465846E-004 -1.2810192634880221E-005
       &END VELOCITY
     &END REPLICA
     &REPLICA
       &COORD
           3.5641392269341821E+000  1.4798770406127655E+000  1.2195923554760462E-002
           2.9921832948700380E+000  2.2210230223733647E+000 -3.6814345844078816E-001
           3.3445297407903900E+000  1.3709171262730562E+000  9.9172305981120168E-001
           3.5169682006248650E+000  6.8360135387331133E-001 -6.0752895490707415E-001
           4.9459654898729877E+000  1.9127974452280128E+000 -2.4751367555046592E-002
           5.4414725505495900E+000  1.6273195947737189E+000  9.0371949882667701E-001
           5.4528780573084656E+000  1.4413719924122721E+000 -8.6639897279933420E-001
           5.0244294365088731E+000  3.4248017946778120E+000 -1.8338067229794006E-001
           4.0199745335519550E+000  4.1191694532539351E+000 -4.1373972986524656E-002
           6.2221265286015237E+000  3.9334259968905840E+000 -4.7860956064769927E-001
           6.3251675786351047E+000  4.5582026911066809E+000 -1.2662881907833545E+000
           7.4024016916263378E+000  3.6178386781715650E+000  3.0104240260929693E-001
           7.1778691913980488E+000  3.7341467582125016E+000  1.3618843262050919E+000
           7.7034156157407301E+000  2.5898824851628426E+000  1.0294221900446122E-001
           8.5476787877932470E+000  4.5496249303348488E+000 -6.8341886817038747E-002
           8.3413851608993603E+000  5.5501903004116349E+000 -7.5166090433818888E-001
           9.6906363703932517E+000  4.3130016770072972E+000  3.1370968085653983E-001
       &END COORD
       &VELOCITY
           0.0000000000000000E+000  0.0000000000000000E+000  0.0000000000000000E+000
           0.0000000000000000E+000  0.0000000000000000E+000  0.0000000000000000E+000
           0.0000000000000000E+000  0.0000000000000000E+000  0.0000000000000000E+000
           0.0000000000000000E+000  0.0000000000000000E+000  0.0000000000000000E+000
           0.0000000000000000E+000  0.0000000000000000E+000  0.0000000000000000E+000
           0.0000000000000000E+000  0.0000000000000000E+000  0.0000000000000000E+000
           0.0000000000000000E+000  0.0000000000000000E+000  0.0000000000000000E+000
           0.0000000000000000E+000  0.0000000000000000E+000  0.0000000000000000E+000
           0.0000000000000000E+000  0.0000000000000000E+000  0.0000000000000000E+000
           0.0000000000000000E+000  0.0000000000000000E+000  0.0000000000000000E+000
           0.0000000000000000E+000  0.0000000000000000E+000  0.0000000000000000E+000
           0.0000000000000000E+000  0.0000000000000000E+000  0.0000000000000000E+000
           0.0000000000000000E+000  0.0000000000000000E+000  0.0000000000000000E+000
           0.0000000000000000E+000  0.0000000000000000E+000  0.0000000000000000E+000
           0.0000000000000000E+000  0.0000000000000000E+000  0.0000000000000000E+000
           0.0000000000000000E+000  0.0000000000000000E+000  0.0000000000000000E+000
           0.0000000000000000E+000  0.0000000000000000E+000  0.0000000000000000E+000
       &END VELOCITY
     &END REPLICA
     &PROGRAM_RUN_INFO SILENT
     &END PROGRAM_RUN_INFO
     &CONVERGENCE_INFO SILENT
     &END CONVERGENCE_INFO
   &END BAND
   &PRINT
     &VELOCITIES OFF
     &END VELOCITIES
   &END PRINT
 &END MOTION
 &FORCE_EVAL
   METHOD FIST
   &MM
     &FORCEFIELD
       PARMTYPE CHM
       PARM_FILE_NAME ./amber/mol.pot
       &SPLINE
         R0_NB  5.2917720859000010E-005
         RCUT_NB  2.0000000000000004E+001
         EMAX_SPLINE  1.0000000000000000E+010
         EMAX_ACCURACY  5.0000000000000000E+002
         EPS_SPLINE  9.9999999999999995E-007
       &END SPLINE
     &END FORCEFIELD
     &POISSON
       &EWALD
         EWALD_TYPE EWALD
         ALPHA  3.5999999999999999E-001
         GMAX 29
       &END EWALD
     &END POISSON
     &PRINT
       &FF_INFO SILENT
         SPLINE_INFO T
       &END FF_INFO
     &END PRINT
   &END MM
   &SUBSYS
     &CELL
       A  3.0000000000000007E+001  0.0000000000000000E+000  0.0000000000000000E+000
       B  0.0000000000000000E+000  3.0000000000000007E+001  0.0000000000000000E+000
       C  0.0000000000000000E+000  0.0000000000000000E+000  3.0000000000000007E+001
       MULTIPLE_UNIT_CELL 1 1 1
     &END CELL
     &COORD
       N3  3.3290000000000006E+000  1.5780000000000003E+000 -2.8199999999999997E-001
       H11  4.0149999999999997E+000  9.6499999999999997E-001 -7.0000000000000007E-001
       H11  2.6180000000000003E+000  1.7849999999999999E+000 -9.6900000000000008E-001
       H11  3.0670000000000002E+000  1.2050000000000001E+000  6.1899999999999999E-001
       CT1  3.9700000000000006E+000  2.8460000000000001E+000  0.0000000000000000E+000
       HP  3.6899999999999999E+000  3.5730000000000000E+000 -7.6200000000000001E-001
       HP  3.6509999999999998E+000  3.2050000000000001E+000  9.7899999999999998E-001
       C1  5.4840000000000000E+000  2.6870000000000003E+000  0.0000000000000000E+000
       O  5.9930000000000012E+000  1.5680000000000001E+000  0.0000000000000000E+000
       N  6.2030000000000012E+000  3.8110000000000004E+000  0.0000000000000000E+000
       H2  5.7450000000000001E+000  4.7030000000000003E+000 -1.2200000000000000E-001
       CT2  7.6420000000000003E+000  3.7999999999999998E+000  1.7100000000000001E-001
       H12  7.8830000000000000E+000  3.5540000000000003E+000  1.2050000000000001E+000
       H12  8.0809999999999995E+000  3.0550000000000006E+000 -4.9200000000000005E-001
       C2  8.2270000000000003E+000  5.1660000000000013E+000 -1.6200000000000003E-001
       O2  7.5410000000000004E+000  6.0170000000000003E+000 -7.2399999999999998E-001
       O2  9.3910000000000018E+000  5.4320000000000004E+000  1.2600000000000000E-001
     &END COORD
     &TOPOLOGY
       CHARGE_BETA T
       COORD_FILE_NAME ./amber/mol.pdb
       COORD_FILE_FORMAT PDB
       NUMBER_OF_ATOMS 17
       CONN_FILE_NAME ./amber/mol.psf
       CONN_FILE_FORMAT UPSF
       MULTIPLE_UNIT_CELL 1 1 1
     &END TOPOLOGY
   &END SUBSYS
 &END FORCE_EVAL
