 # Version information for this restart file 
 # current date 2026-04-22 11:54:42.213
 # current working dir /DATA/lab07/hglee/cp2k_agent/test/level7
 # Program compiled at                                       2026-03-01 16:41:12
 # Program compiled on                                                    master
 # Program compiled for                                                   x86_64
 # Source code revision number                                       git:5e54ba2
 &GLOBAL
   PRINT_LEVEL LOW
   PROJECT_NAME "2gly_B-NEB-r-0"
   OUTPUT_FILE_NAME 2gly_B-NEB-r-0.out
   RUN_TYPE BAND
 &END GLOBAL
 &MOTION
   &BAND
     NPROC_REP 1
     BAND_TYPE B-NEB
     NUMBER_OF_REPLICA 5
     ROTATE_FRAMES T
     K_SPRING  5.0000000000000003E-002
     &CONVERGENCE_CONTROL
       MAX_FORCE  1.0000000000000000E-003
       RMS_FORCE  5.0000000000000001E-004
     &END CONVERGENCE_CONTROL
     &OPTIMIZE_BAND
       OPT_TYPE MD
       &MD
         MAX_STEPS 20
         TIMESTEP  4.9999999999999994E-001
         TEMPERATURE  1.0000000000000001E+002
         &VEL_CONTROL
           ANNEALING  9.4999999999999996E-001
           PROJ_VELOCITY_VERLET T
         &END VEL_CONTROL
       &END MD
     &END OPTIMIZE_BAND
     &REPLICA
       &COORD
           3.3290000000000006E+000  1.5780000000000003E+000 -2.8199999999999997E-001
           4.0149999999999997E+000  9.6499999999999997E-001 -7.0000000000000007E-001
           2.6180000000000003E+000  1.7849999999999999E+000 -9.6900000000000008E-001
           3.0670000000000002E+000  1.2050000000000001E+000  6.1899999999999999E-001
           3.9700000000000006E+000  2.8460000000000001E+000  0.0000000000000000E+000
           3.6899999999999999E+000  3.5730000000000000E+000 -7.6200000000000001E-001
           3.6509999999999998E+000  3.2050000000000001E+000  9.7899999999999998E-001
           5.4840000000000000E+000  2.6870000000000003E+000  0.0000000000000000E+000
           5.9930000000000012E+000  1.5680000000000001E+000  0.0000000000000000E+000
           6.2030000000000012E+000  3.8110000000000004E+000  0.0000000000000000E+000
           5.7450000000000001E+000  4.7030000000000003E+000 -1.2200000000000000E-001
           7.6420000000000003E+000  3.7999999999999998E+000  1.7100000000000001E-001
           7.8830000000000000E+000  3.5540000000000003E+000  1.2050000000000001E+000
           8.0809999999999995E+000  3.0550000000000006E+000 -4.9200000000000005E-001
           8.2270000000000003E+000  5.1660000000000013E+000 -1.6200000000000003E-001
           7.5410000000000004E+000  6.0170000000000003E+000 -7.2399999999999998E-001
           9.3910000000000018E+000  5.4320000000000004E+000  1.2600000000000000E-001
       &END COORD
       &VELOCITY
           0.0000000000000000E+000  0.0000000000000000E+000  0.0000000000000000E+000
           0.0000000000000000E+000  0.0000000000000000E+000  0.0000000000000000E+000
           0.0000000000000000E+000  0.0000000000000000E+000  0.0000000000000000E+000
           0.0000000000000000E+000  0.0000000000000000E+000  0.0000000000000000E+000
           0.0000000000000000E+000  0.0000000000000000E+000  0.0000000000000000E+000
           0.0000000000000000E+000  0.0000000000000000E+000  0.0000000000000000E+000
           0.0000000000000000E+000  0.0000000000000000E+000  0.0000000000000000E+000
           0.0000000000000000E+000  0.0000000000000000E+000  0.0000000000000000E+000
           0.0000000000000000E+000  0.0000000000000000E+000  0.0000000000000000E+000
           0.0000000000000000E+000  0.0000000000000000E+000  0.0000000000000000E+000
           0.0000000000000000E+000  0.0000000000000000E+000  0.0000000000000000E+000
           0.0000000000000000E+000  0.0000000000000000E+000  0.0000000000000000E+000
           0.0000000000000000E+000  0.0000000000000000E+000  0.0000000000000000E+000
           0.0000000000000000E+000  0.0000000000000000E+000  0.0000000000000000E+000
           0.0000000000000000E+000  0.0000000000000000E+000  0.0000000000000000E+000
           0.0000000000000000E+000  0.0000000000000000E+000  0.0000000000000000E+000
           0.0000000000000000E+000  0.0000000000000000E+000  0.0000000000000000E+000
       &END VELOCITY
     &END REPLICA
     &REPLICA
       &COORD
           3.5667829370781683E+000  1.8341118108958601E+000 -8.7562053957278940E-001
           3.6998994681214281E+000  1.5269996308317011E+000 -1.8172631590942769E+000
           3.4539461638077529E+000  2.8367932313801787E+000 -8.4937581646576987E-001
           2.8311048760544790E+000  1.2933956556552997E+000 -4.6297612090946383E-001
           4.7694138314330168E+000  1.5798445452720740E+000 -1.0770199298806050E-001
           4.4951618051211604E+000  1.0913644678200192E+000  8.3987126392792244E-001
           5.4257694187651770E+000  9.1832994864260209E-001 -6.8081826278715329E-001
           5.4776470096572112E+000  2.9047008426797896E+000  1.7609321444271855E-001
           5.0045186511894979E+000  3.6810867650393502E+000  1.0096535040806267E+000
           6.6117513138490933E+000  3.1121061367355343E+000 -4.9349468934131940E-001
           6.6802184096816157E+000  2.9491079105452096E+000 -1.4909810674295430E+000
           7.8209202224427594E+000  3.5436799982998943E+000  1.7941222407213306E-001
           7.7022757418686751E+000  3.4191722916593754E+000  1.2549555305818285E+000
           8.6577823266857337E+000  2.9275280125452134E+000 -1.5551524981296258E-001
           8.1121794675843528E+000  5.0036213284157984E+000 -1.3680651327142709E-001
           7.4018926856044889E+000  5.8789563209320033E+000  3.7372582848078922E-001
           9.0447030188312105E+000  5.2661353410445573E+000 -9.0946902595234869E-001
       &END COORD
       &VELOCITY
           4.4342558623946122E-004 -8.3424992599234800E-005  6.0240409415338741E-005
           1.4743174825066564E-004  1.6279871442475121E-005  4.2406156292851179E-005
           4.2257724301570016E-004 -1.4492787501285697E-004  3.6874460046667763E-004
           9.4924753890355173E-005  2.5559785440446985E-004 -2.4113593407193852E-004
           3.6237439245222198E-004 -1.1041469871990796E-004  1.5242836353300163E-004
           1.1335144710253462E-004 -6.6856014971810994E-005  1.8565801816500848E-004
           3.3769806963649264E-004 -1.9087338168099146E-004  1.5155774895657620E-004
           1.2435560875296694E-005  2.3200766153773551E-004 -1.3574910952078519E-004
          -2.9281511042808305E-004  1.7885615952412608E-004 -8.2698267501644221E-005
           7.6927014418771031E-005  1.4507555164418705E-004 -2.7014206367540036E-004
           4.3995989969070607E-004 -4.3329867255097101E-004 -2.0596275934426985E-004
           3.0221313071572611E-005  1.9798330314460513E-005 -1.4549489912951918E-004
           4.4611426267625408E-005 -1.8558082209510303E-004 -1.6841482907934110E-004
           2.2462121518983474E-005  4.3919906654512071E-005 -1.4664974054995694E-004
          -8.1480191472426739E-005 -3.2388565208095471E-005  2.4043622767887251E-005
          -2.6740280930650687E-004 -4.1117240256330025E-004  5.0848350102390184E-004
          -2.7951603037461569E-004 -3.5182436974900185E-004 -3.9849145063457691E-004
       &END VELOCITY
     &END REPLICA
     &REPLICA
       &COORD
           4.8603176292906562E+000  1.1438881592499177E+000  7.0119592723230945E-003
           4.1126613888697037E+000  6.6768871154785014E-001  5.1252709199339586E-001
           5.7824983482042551E+000  6.6484915579758352E-001  1.5657198051383125E-001
           4.7088761721374075E+000  1.3244200851113492E+000 -9.8554285560276189E-001
           4.8007430917546055E+000  2.5105047051804172E+000  5.5805863908905939E-001
           3.7923435872084874E+000  2.8513490776290165E+000  7.0846484436886492E-001
           5.3232873367647233E+000  2.4701711034407605E+000  1.5022664302712887E+000
           5.3176877873542585E+000  3.5751121375801160E+000 -3.8308622507525664E-001
           4.7182422438541742E+000  4.6311840028526587E+000 -5.4947477993029870E-001
           6.3499315661735860E+000  3.2200882061011362E+000 -1.0893238949998538E+000
           6.1947865615621023E+000  2.9819782921305715E+000 -2.0300877547817691E+000
           7.6866463382316024E+000  3.3335217796659631E+000 -5.9257979801684824E-001
           7.9406512751903628E+000  2.5257895528985483E+000  2.9348599533716456E-002
           8.3516727541101723E+000  3.3622859860101570E+000 -1.4014612695871633E+000
           7.9152980464286626E+000  4.5630509579353840E+000  1.8463919955930355E-001
           8.5982964783405418E+000  4.4336438587205205E+000  1.2329290159128801E+000
           7.3708875409452510E+000  5.5650167659895207E+000 -3.1930121401577066E-001
       &END COORD
       &VELOCITY
           2.7886203046194793E-003  1.0245438291059487E-004  2.0398926269928641E-003
           2.7221927994041752E-003  6.8499478732228578E-004  2.7629817872311777E-003
           2.6324542723752658E-003  2.6068638895872152E-005  1.4933143386488823E-003
           3.1091200752509178E-003 -9.6766524556348430E-004  1.7405762559162474E-003
           1.0044929949916245E-003  9.8859407801105007E-004  2.3557663718053084E-004
           7.0572492304622715E-004  9.7863854030114344E-004 -1.6864364460329258E-003
          -4.4623241043107402E-004  1.9279920537485994E-003  8.7184014102203522E-004
          -3.0685163320258067E-004  1.1668942753002302E-003 -1.3334705553028929E-004
          -2.0464094964818443E-003 -7.1689326075933315E-005 -2.2671016010766100E-003
          -6.0171315206685198E-004  1.1355348930650871E-003 -5.2874831033637408E-005
          -6.8359054910186671E-004  3.2494805395278086E-003 -4.9756536336350134E-004
          -7.1044506953685596E-004  8.3859840861297090E-004 -5.5589955780891782E-005
          -1.3823529432035352E-004  6.6630755760968812E-004 -6.6020240686819889E-004
          -9.4798538548230291E-004  1.9358257748682047E-003 -5.5044818063502569E-005
          -2.2561228858973466E-004 -4.5491406948978930E-004  7.1189576724109687E-004
           3.0844008681352988E-004 -2.3281773660609158E-003  2.6543919276889212E-004
          -6.0207116909051744E-004 -5.1201319067664436E-004  8.4510588869062550E-004
       &END VELOCITY
     &END REPLICA
     &REPLICA
       &COORD
           6.0874966946899889E+000  1.9729523016262136E+000  6.7385280282385196E-001
           5.9019217312749133E+000  2.7133717540440769E+000  1.3307645891895397E+000
           7.1032871386653378E+000  1.9479464380117213E+000  5.5841328384820965E-001
           5.7062722020880319E+000  1.1053757883317139E+000  9.8519596371801610E-001
           5.5078662807919203E+000  2.3805597636517097E+000 -5.9870725074654552E-001
           6.2518168891688850E+000  2.2806152283622376E+000 -1.3864111919667435E+000
           4.6659959581865103E+000  1.7286967875565649E+000 -8.0627400626993295E-001
           5.0174982654777205E+000  3.8226458407724699E+000 -5.7866832038043325E-001
           3.8668464771571136E+000  3.9992099962654137E+000 -9.6484765846857645E-001
           5.7081361657890932E+000  4.8916079043249221E+000 -1.5458117053195161E-001
           5.3247019482288591E+000  5.7801582746029920E+000 -4.1403088063681442E-001
           6.9644423729340792E+000  5.0150767332534167E+000  5.5505924655269090E-001
           7.3892081127485643E+000  5.9975212602351817E+000  3.6936390458382723E-001
           6.7604819163597760E+000  4.9338845184689717E+000  1.6174520597399278E+000
           7.9427633041268209E+000  3.9668031043060599E+000  1.1070789324482150E-001
           8.3591030662915742E+000  3.2013836701067859E+000  1.0101504557025904E+000
           7.9824285727134425E+000  3.7294941302772076E+000 -1.1114124109919084E+000
       &END COORD
       &VELOCITY
           3.6324571562070131E-004 -1.6415059384721560E-004 -1.6932799337893219E-005
           3.7691434223160493E-004 -4.2518709248243528E-004  2.9553024487663677E-004
           3.3432154284671007E-004 -1.3191115672366157E-004 -1.6863183711256032E-004
           4.1582024761332238E-004 -2.1971981723600353E-004 -1.4847888228732974E-004
          -1.4981269118177265E-006  4.5079382136320281E-005  1.7412537866691322E-004
          -3.0847547527363111E-004  1.4679675295133673E-004 -1.4792893765661245E-004
          -1.6422945130154903E-004  1.7307217110345990E-004  5.0749268383262801E-004
           1.6903862176230235E-005  1.4249205309030302E-005  7.1875364117556987E-005
           9.5046503849752323E-005  8.0840959422483698E-005 -1.5960925584365912E-004
           1.6227048494074200E-005  3.0765303611714838E-008 -1.0212458593521967E-005
          -8.6681046436141152E-005 -7.7290454111327047E-005 -1.1226239703505216E-004
           1.0991341199492998E-004  6.1714753935816500E-005 -1.7367558858337459E-004
           2.6580284818466843E-004 -1.0579953289542026E-004 -6.1546221839755221E-004
           2.2673509816992677E-004  3.6498952209737594E-004 -1.2685921858362359E-004
          -6.7757965840587868E-005 -7.9678708053032498E-005 -1.3271031571875248E-005
           2.7400086310807085E-005 -3.6210752637222580E-007 -5.8559903820657996E-006
          -2.3437201406857074E-004 -3.2722845532887862E-005 -5.0566160024468694E-006
       &END VELOCITY
     &END REPLICA
     &REPLICA
       &COORD
           3.5553500705404630E+000  1.4927789634471165E+000  3.4903657411560700E-002
           3.0044630786982220E+000  2.2036787846160224E+000 -4.2578492121941403E-001
           3.2888542902748661E+000  1.4559969502215877E+000  1.0081462184433467E+000
           3.5354445314380194E+000  6.5308466670615017E-001 -5.2621688002556910E-001
           4.9386638419632218E+000  1.9225068744505949E+000  3.2468026746041684E-002
           5.3883713249341572E+000  1.7062909882836492E+000  1.0020539540000359E+000
           5.4837921544925781E+000  1.3907515291307866E+000 -7.4704744815019564E-001
           5.0291827386274557E+000  3.4188020280792664E+000 -2.3283207233807746E-001
           4.0211899818682735E+000  4.1212243292086761E+000 -1.9045857593886198E-001
           6.2411497396935340E+000  3.9049532622701220E+000 -5.0693053242423847E-001
           6.3835999563188368E+000  4.4701988606928689E+000 -1.3325250753126436E+000
           7.3818606731892142E+000  3.6481153481347719E+000  3.4940751535012926E-001
           7.1072417243060446E+000  3.8419660479750330E+000  1.3868728589090100E+000
           7.6888928655561672E+000  2.6085307230660963E+000  2.4197362790690022E-001
           8.5462889567711926E+000  4.5508074564509036E+000 -3.2146845099481999E-002
           8.3759066492621823E+000  5.4983401877357956E+000 -7.9619173411562882E-001
           9.6689638666493423E+000  4.3434783690646652E+000  4.2053593152635421E-001
       &END COORD
       &VELOCITY
           0.0000000000000000E+000  0.0000000000000000E+000  0.0000000000000000E+000
           0.0000000000000000E+000  0.0000000000000000E+000  0.0000000000000000E+000
           0.0000000000000000E+000  0.0000000000000000E+000  0.0000000000000000E+000
           0.0000000000000000E+000  0.0000000000000000E+000  0.0000000000000000E+000
           0.0000000000000000E+000  0.0000000000000000E+000  0.0000000000000000E+000
           0.0000000000000000E+000  0.0000000000000000E+000  0.0000000000000000E+000
           0.0000000000000000E+000  0.0000000000000000E+000  0.0000000000000000E+000
           0.0000000000000000E+000  0.0000000000000000E+000  0.0000000000000000E+000
           0.0000000000000000E+000  0.0000000000000000E+000  0.0000000000000000E+000
           0.0000000000000000E+000  0.0000000000000000E+000  0.0000000000000000E+000
           0.0000000000000000E+000  0.0000000000000000E+000  0.0000000000000000E+000
           0.0000000000000000E+000  0.0000000000000000E+000  0.0000000000000000E+000
           0.0000000000000000E+000  0.0000000000000000E+000  0.0000000000000000E+000
           0.0000000000000000E+000  0.0000000000000000E+000  0.0000000000000000E+000
           0.0000000000000000E+000  0.0000000000000000E+000  0.0000000000000000E+000
           0.0000000000000000E+000  0.0000000000000000E+000  0.0000000000000000E+000
           0.0000000000000000E+000  0.0000000000000000E+000  0.0000000000000000E+000
       &END VELOCITY
     &END REPLICA
     &PROGRAM_RUN_INFO SILENT
     &END PROGRAM_RUN_INFO
     &CONVERGENCE_INFO SILENT
     &END CONVERGENCE_INFO
   &END BAND
   &PRINT
     &VELOCITIES OFF
     &END VELOCITIES
   &END PRINT
 &END MOTION
 &FORCE_EVAL
   METHOD FIST
   &MM
     &FORCEFIELD
       PARMTYPE CHM
       PARM_FILE_NAME ./amber/mol.pot
       &SPLINE
         R0_NB  5.2917720859000010E-005
         RCUT_NB  2.0000000000000004E+001
         EMAX_SPLINE  1.0000000000000000E+010
         EMAX_ACCURACY  5.0000000000000000E+002
         EPS_SPLINE  9.9999999999999995E-007
       &END SPLINE
     &END FORCEFIELD
     &POISSON
       &EWALD
         EWALD_TYPE EWALD
         ALPHA  3.5999999999999999E-001
         GMAX 29
       &END EWALD
     &END POISSON
     &PRINT
       &FF_INFO SILENT
         SPLINE_INFO T
       &END FF_INFO
     &END PRINT
   &END MM
   &SUBSYS
     &CELL
       A  3.0000000000000007E+001  0.0000000000000000E+000  0.0000000000000000E+000
       B  0.0000000000000000E+000  3.0000000000000007E+001  0.0000000000000000E+000
       C  0.0000000000000000E+000  0.0000000000000000E+000  3.0000000000000007E+001
       MULTIPLE_UNIT_CELL 1 1 1
     &END CELL
     &COORD
       N3  3.3290000000000006E+000  1.5780000000000003E+000 -2.8199999999999997E-001
       H11  4.0149999999999997E+000  9.6499999999999997E-001 -7.0000000000000007E-001
       H11  2.6180000000000003E+000  1.7849999999999999E+000 -9.6900000000000008E-001
       H11  3.0670000000000002E+000  1.2050000000000001E+000  6.1899999999999999E-001
       CT1  3.9700000000000006E+000  2.8460000000000001E+000  0.0000000000000000E+000
       HP  3.6899999999999999E+000  3.5730000000000000E+000 -7.6200000000000001E-001
       HP  3.6509999999999998E+000  3.2050000000000001E+000  9.7899999999999998E-001
       C1  5.4840000000000000E+000  2.6870000000000003E+000  0.0000000000000000E+000
       O  5.9930000000000012E+000  1.5680000000000001E+000  0.0000000000000000E+000
       N  6.2030000000000012E+000  3.8110000000000004E+000  0.0000000000000000E+000
       H2  5.7450000000000001E+000  4.7030000000000003E+000 -1.2200000000000000E-001
       CT2  7.6420000000000003E+000  3.7999999999999998E+000  1.7100000000000001E-001
       H12  7.8830000000000000E+000  3.5540000000000003E+000  1.2050000000000001E+000
       H12  8.0809999999999995E+000  3.0550000000000006E+000 -4.9200000000000005E-001
       C2  8.2270000000000003E+000  5.1660000000000013E+000 -1.6200000000000003E-001
       O2  7.5410000000000004E+000  6.0170000000000003E+000 -7.2399999999999998E-001
       O2  9.3910000000000018E+000  5.4320000000000004E+000  1.2600000000000000E-001
     &END COORD
     &TOPOLOGY
       CHARGE_BETA T
       COORD_FILE_NAME ./amber/mol.pdb
       COORD_FILE_FORMAT PDB
       NUMBER_OF_ATOMS 17
       CONN_FILE_NAME ./amber/mol.psf
       CONN_FILE_FORMAT UPSF
       MULTIPLE_UNIT_CELL 1 1 1
     &END TOPOLOGY
   &END SUBSYS
 &END FORCE_EVAL
