 # Version information for this restart file 
 # current date 2026-04-22 11:54:42.280
 # current working dir /DATA/lab07/hglee/cp2k_agent/test/level7
 # Program compiled at                                       2026-03-01 16:41:12
 # Program compiled on                                                    master
 # Program compiled for                                                   x86_64
 # Source code revision number                                       git:5e54ba2
 &GLOBAL
   PRINT_LEVEL LOW
   PROJECT_NAME "2gly_B-NEB-r-0"
   OUTPUT_FILE_NAME 2gly_B-NEB-r-0.out
   RUN_TYPE BAND
 &END GLOBAL
 &MOTION
   &BAND
     NPROC_REP 1
     BAND_TYPE B-NEB
     NUMBER_OF_REPLICA 5
     ROTATE_FRAMES T
     K_SPRING  5.0000000000000003E-002
     &CONVERGENCE_CONTROL
       MAX_FORCE  1.0000000000000000E-003
       RMS_FORCE  5.0000000000000001E-004
     &END CONVERGENCE_CONTROL
     &OPTIMIZE_BAND
       OPT_TYPE MD
       &MD
         MAX_STEPS 20
         TIMESTEP  4.9999999999999994E-001
         TEMPERATURE  1.0000000000000001E+002
         &VEL_CONTROL
           ANNEALING  9.4999999999999996E-001
           PROJ_VELOCITY_VERLET T
         &END VEL_CONTROL
       &END MD
     &END OPTIMIZE_BAND
     &REPLICA
       &COORD
           3.3290000000000006E+000  1.5780000000000003E+000 -2.8199999999999997E-001
           4.0149999999999997E+000  9.6499999999999997E-001 -7.0000000000000007E-001
           2.6180000000000003E+000  1.7849999999999999E+000 -9.6900000000000008E-001
           3.0670000000000002E+000  1.2050000000000001E+000  6.1899999999999999E-001
           3.9700000000000006E+000  2.8460000000000001E+000  0.0000000000000000E+000
           3.6899999999999999E+000  3.5730000000000000E+000 -7.6200000000000001E-001
           3.6509999999999998E+000  3.2050000000000001E+000  9.7899999999999998E-001
           5.4840000000000000E+000  2.6870000000000003E+000  0.0000000000000000E+000
           5.9930000000000012E+000  1.5680000000000001E+000  0.0000000000000000E+000
           6.2030000000000012E+000  3.8110000000000004E+000  0.0000000000000000E+000
           5.7450000000000001E+000  4.7030000000000003E+000 -1.2200000000000000E-001
           7.6420000000000003E+000  3.7999999999999998E+000  1.7100000000000001E-001
           7.8830000000000000E+000  3.5540000000000003E+000  1.2050000000000001E+000
           8.0809999999999995E+000  3.0550000000000006E+000 -4.9200000000000005E-001
           8.2270000000000003E+000  5.1660000000000013E+000 -1.6200000000000003E-001
           7.5410000000000004E+000  6.0170000000000003E+000 -7.2399999999999998E-001
           9.3910000000000018E+000  5.4320000000000004E+000  1.2600000000000000E-001
       &END COORD
       &VELOCITY
           0.0000000000000000E+000  0.0000000000000000E+000  0.0000000000000000E+000
           0.0000000000000000E+000  0.0000000000000000E+000  0.0000000000000000E+000
           0.0000000000000000E+000  0.0000000000000000E+000  0.0000000000000000E+000
           0.0000000000000000E+000  0.0000000000000000E+000  0.0000000000000000E+000
           0.0000000000000000E+000  0.0000000000000000E+000  0.0000000000000000E+000
           0.0000000000000000E+000  0.0000000000000000E+000  0.0000000000000000E+000
           0.0000000000000000E+000  0.0000000000000000E+000  0.0000000000000000E+000
           0.0000000000000000E+000  0.0000000000000000E+000  0.0000000000000000E+000
           0.0000000000000000E+000  0.0000000000000000E+000  0.0000000000000000E+000
           0.0000000000000000E+000  0.0000000000000000E+000  0.0000000000000000E+000
           0.0000000000000000E+000  0.0000000000000000E+000  0.0000000000000000E+000
           0.0000000000000000E+000  0.0000000000000000E+000  0.0000000000000000E+000
           0.0000000000000000E+000  0.0000000000000000E+000  0.0000000000000000E+000
           0.0000000000000000E+000  0.0000000000000000E+000  0.0000000000000000E+000
           0.0000000000000000E+000  0.0000000000000000E+000  0.0000000000000000E+000
           0.0000000000000000E+000  0.0000000000000000E+000  0.0000000000000000E+000
           0.0000000000000000E+000  0.0000000000000000E+000  0.0000000000000000E+000
       &END VELOCITY
     &END REPLICA
     &REPLICA
       &COORD
           3.8845246236531032E+000  1.4583477012203327E+000 -8.7195643356445740E-001
           4.2827802357645410E+000  7.8806690216050623E-001 -1.4882880755274648E+000
           3.8515154404572547E+000  2.3652102757267253E+000 -1.3004469537930767E+000
           3.0036693099564618E+000  1.1037233733608236E+000 -5.7241680921378157E-001
           4.7337989511760643E+000  1.6625573919430696E+000  2.8073792871743236E-001
           4.1129988673105462E+000  1.6146852918623265E+000  1.1942023359547218E+000
           5.4942194337046697E+000  8.7055347640415115E-001  3.0800829774915428E-001
           5.3882488794933998E+000  3.0447524606480716E+000  1.3714538234153220E-001
           4.7055577093072927E+000  4.0664211536873340E+000  3.3203694539582546E-001
           6.6989167181767799E+000  3.0190510112725950E+000 -1.5060538313612837E-001
           7.1040184475267960E+000  2.4044134768169263E+000 -8.6162441613154517E-001
           7.6391640411594093E+000  3.7912593377539965E+000  6.3739614193299576E-001
           7.1621865021981721E+000  4.1268107977585178E+000  1.5558219876134494E+000
           8.4945273169164164E+000  3.1675543481755581E+000  8.9972764531045302E-001
           8.1148919677377158E+000  4.9853030564593190E+000 -1.5737881524585978E-001
           7.3283908621357412E+000  5.9269298495524447E+000 -3.0842348351731014E-001
           9.2555868541509216E+000  4.9369010135132791E+000 -6.3894005509183083E-001
       &END COORD
       &VELOCITY
           6.9128248244527631E-004 -6.9006294567072594E-005  3.8956970758772364E-004
           4.6065429595350135E-004 -4.4759223358285992E-005  4.3072784428390841E-004
           1.0421611246568937E-003 -1.9580046732166028E-005  6.7133638355981078E-004
           3.8690029861089412E-004  1.6791241637224177E-004 -3.2730477445321520E-004
           4.7092308932531222E-004 -4.3449155797106970E-005  3.5858468176011945E-004
           3.1376213241979852E-004 -2.0679246905434676E-004  2.0884627506677909E-004
           4.8379399893410573E-004  3.0656988864782958E-005  2.2538607846490038E-004
           6.5553591154323491E-005  2.4314698038518549E-004 -2.2370168922444816E-004
          -2.7409888880318672E-004  3.4477789937561798E-004 -3.9964057760376158E-004
           1.8164724481026665E-004 -7.8704873948999036E-005 -5.7276975019342235E-004
           5.0533592769496890E-004 -7.2095287740530018E-004 -1.3485097660087807E-004
           1.7963112692898054E-005 -2.2209458811993664E-004 -1.0263531039847989E-004
          -9.2563275915512485E-005 -2.1809222938024410E-004 -7.5169601202667861E-005
           1.6770519721587352E-004 -1.3828950340105286E-005 -9.7011421835152658E-006
          -1.9481424690806994E-004 -2.8171096888841602E-004  1.0829290893234898E-004
          -2.5913425623291038E-004 -3.8671113717128136E-004  7.4828467827149040E-004
          -5.4665446415493707E-004 -4.4773937110510829E-004 -4.9444523181005188E-004
       &END VELOCITY
     &END REPLICA
     &REPLICA
       &COORD
           4.9173400330043062E+000  1.3471731186697919E+000  6.5789759124220804E-001
           4.0527375038981326E+000  1.0891040215561045E+000  1.1336799949978569E+000
           5.7536701817496319E+000  1.0071787609174001E+000  1.1869775272251963E+000
           5.0522964959882657E+000  1.0624443240430093E+000 -3.0423288443183560E-001
           4.7027225463934563E+000  2.8107648867241006E+000  4.9672375107298733E-001
           3.7186491012002310E+000  3.0552855864385995E+000  1.4252677087023757E-001
           4.8691136010266014E+000  3.2290691041647515E+000  1.4716981396836459E+000
           5.4112949973715398E+000  3.4806806292601324E+000 -6.5523092109696979E-001
           4.8397834820591834E+000  4.2309626235777094E+000 -1.4488955975985236E+000
           6.5513788807339051E+000  2.9367420040022187E+000 -9.1667241879640382E-001
           6.6416191116634513E+000  2.5540773289540439E+000 -1.8196677188613375E+000
           7.7234831117285623E+000  3.2605153231886446E+000 -1.6372469156505801E-001
           7.8171647362884817E+000  2.7056008713238668E+000  7.2210396626361639E-001
           8.5564171394781496E+000  3.1231791450371520E+000 -7.8262231734410970E-001
           7.8078278605078424E+000  4.6498428247609134E+000  2.5203442737617909E-001
           8.2251363984020891E+000  4.8314211446796902E+000  1.4282612478047940E+000
           7.4364577024817118E+000  5.4111400112392189E+000 -6.6377981691250365E-001
       &END COORD
       &VELOCITY
           2.3352718464066833E-003  1.8139132243623099E-003  2.7956656200928305E-003
           2.5559314312715259E-003  1.9433184313495310E-003  3.2003131663822203E-003
           2.2408250378491549E-003  2.5417709442750133E-003  2.8666355011923166E-003
           2.3998031830611932E-003 -1.2696554333282972E-004  3.3687509398365387E-003
           1.0048559435029685E-003  1.4339201764276628E-003  2.8927267560272576E-004
           9.9580545877475668E-004 -6.1608756018509609E-004 -1.1026200708666397E-003
          -5.1362293656752680E-004  3.2361054455987874E-003 -3.3581862913632517E-004
          -1.8795206740411554E-004  7.8525950393008598E-004 -8.2774332263662708E-004
          -1.5833835185157443E-003 -1.8530399723076228E-003 -2.3684789615593814E-003
          -3.9190831415189900E-004  6.0895445086447085E-004 -1.3529587108006775E-003
           4.9413350514195647E-005  4.5291659545482685E-003 -2.9828025861029402E-003
          -3.2097655578279993E-004  2.2381685183417549E-004 -9.8538007777886744E-004
           2.8269648134965477E-004 -7.2020388851185121E-004 -1.4061795928034246E-003
          -5.3728663230593785E-004  1.8757633569846566E-003 -1.8551306265141207E-003
          -6.0609714157638375E-004 -2.2154114512179269E-004  8.9204228951420927E-004
          -4.7962048975476945E-004 -1.5074679735328032E-003  1.0038711347762758E-003
          -8.2821451531343859E-004  8.5141174492335428E-004  1.9555907349292270E-003
       &END VELOCITY
     &END REPLICA
     &REPLICA
       &COORD
           5.7863360329308797E+000  2.4074363227512969E+000  1.1713685722972167E+000
           5.4749271962680632E+000  3.3343900393645916E+000  1.4128058988076260E+000
           6.7902719117967099E+000  2.4001164861195647E+000  1.3537257177812612E+000
           5.2951056146230995E+000  1.7055203407713657E+000  1.6856282651911290E+000
           5.5955779729494903E+000  2.2432221797567378E+000 -2.6530454317685842E-001
           6.5131323930892817E+000  1.8672002853159664E+000 -7.1783120915144161E-001
           4.7928048400511223E+000  1.5268408079746814E+000 -4.1016861998355542E-001
           5.2149800157001946E+000  3.5398090062962719E+000 -9.7300749105740081E-001
           4.2406696308654794E+000  3.4713813063524834E+000 -1.7164018725607952E+000
           5.8261846072200143E+000  4.7290601484227448E+000 -8.4703834514738074E-001
           5.5886415078783962E+000  5.4090282587763667E+000 -1.5467446070718063E+000
           6.8499434881482397E+000  5.2011711779752767E+000  6.3590956836017037E-002
           7.3866393795530731E+000  6.0262718874814443E+000 -3.9928823792019280E-001
           6.3606215105655695E+000  5.5678628742619125E+000  9.6350806025136793E-001
           7.8357016171046983E+000  4.1130985704903029E+000  3.8278697396735084E-001
           7.9387280567149352E+000  3.8094990081202229E+000  1.5895265410648964E+000
           8.1983507602358152E+000  3.3919578972383500E+000 -5.6361043414234024E-001
       &END COORD
       &VELOCITY
          -8.0117881162380413E-005 -1.6496864291047408E-004  7.0195936524199135E-005
           4.8061389246901509E-005 -1.4306143914435157E-004  1.7205095268808758E-004
          -1.2892692041323610E-004  5.2380980667499263E-005 -1.6250393385178964E-004
           3.3665063720741462E-004 -4.9527361487416261E-004  1.5164295018265959E-004
          -9.6566058149443428E-005 -8.8864975588680474E-005  6.4524820317703462E-005
          -6.9564822918622907E-005 -2.9139102776516902E-004  1.9505110629081958E-004
          -9.9655934954529237E-005 -1.3973691231414050E-004 -1.5174108282599652E-005
          -1.8714643759317854E-005  9.2900755478211194E-005  9.8747010861408623E-005
          -3.4892201273735950E-005 -3.2418269055983514E-005  3.7786514568681434E-005
          -5.9593190758123297E-005  1.9192850003602155E-004  4.6103060515533484E-005
           1.5856594345725669E-005  3.3093811000489991E-004  5.5955932046127176E-005
           1.5671524007242215E-004  1.9438369621785362E-004 -1.1059369010386343E-004
           1.3614718916273665E-004  7.7040679344794090E-005 -4.6884735103280985E-004
           2.9149719252382982E-004  4.5072628652252075E-004 -2.6655769741780635E-005
           1.7164887961920608E-004 -2.0075175899027220E-005 -2.8149233744639076E-004
           1.4198411080707540E-004  8.1852816530127775E-005 -1.9535424531987229E-004
           2.5390958215579663E-004 -3.7823402168193980E-004  2.5992849621413888E-004
       &END VELOCITY
     &END REPLICA
     &REPLICA
       &COORD
           3.4987040392044557E+000  1.5748756294922215E+000  9.7188351193073674E-002
           3.1453547992704847E+000  2.0010301998136661E+000 -7.4816695684741785E-001
           2.9687840183145444E+000  1.9242778289832885E+000  8.8247611657009972E-001
           3.5829012224668704E+000  5.7945448346096995E-001 -5.2433092338603542E-002
           4.8519998361151346E+000  2.0464458085750086E+000  3.0799881645446997E-001
           4.9976993559570690E+000  2.2731067535850409E+000  1.3646347357402886E+000
           5.5582617915484791E+000  1.2751624708414810E+000  1.5855934334988741E-003
           5.1086559975590307E+000  3.3053591882775901E+000 -5.0854372205697229E-001
           4.1761468642131065E+000  3.9029296113297911E+000 -1.0420025355746132E+000
           6.3774248833970537E+000  3.7069715665435585E+000 -6.0482462334532217E-001
           6.7810178035330306E+000  3.8918558694205601E+000 -1.5127516850445539E+000
           7.2141444777808834E+000  3.8909051116025570E+000  5.6417955602111336E-001
           6.6732298524534919E+000  4.4760992845738272E+000  1.3086841886644576E+000
           7.4718120758284448E+000  2.9185193700601837E+000  9.8205558854929065E-001
           8.4940844982086965E+000  4.6249383204118768E+000  1.9097881583918311E-001
           8.6052410152320569E+000  5.1646695862040692E+000 -9.0763275767057783E-001
           9.4296236095275763E+000  4.6875808550924276E+000  9.8416762314894102E-001
       &END COORD
       &VELOCITY
           0.0000000000000000E+000  0.0000000000000000E+000  0.0000000000000000E+000
           0.0000000000000000E+000  0.0000000000000000E+000  0.0000000000000000E+000
           0.0000000000000000E+000  0.0000000000000000E+000  0.0000000000000000E+000
           0.0000000000000000E+000  0.0000000000000000E+000  0.0000000000000000E+000
           0.0000000000000000E+000  0.0000000000000000E+000  0.0000000000000000E+000
           0.0000000000000000E+000  0.0000000000000000E+000  0.0000000000000000E+000
           0.0000000000000000E+000  0.0000000000000000E+000  0.0000000000000000E+000
           0.0000000000000000E+000  0.0000000000000000E+000  0.0000000000000000E+000
           0.0000000000000000E+000  0.0000000000000000E+000  0.0000000000000000E+000
           0.0000000000000000E+000  0.0000000000000000E+000  0.0000000000000000E+000
           0.0000000000000000E+000  0.0000000000000000E+000  0.0000000000000000E+000
           0.0000000000000000E+000  0.0000000000000000E+000  0.0000000000000000E+000
           0.0000000000000000E+000  0.0000000000000000E+000  0.0000000000000000E+000
           0.0000000000000000E+000  0.0000000000000000E+000  0.0000000000000000E+000
           0.0000000000000000E+000  0.0000000000000000E+000  0.0000000000000000E+000
           0.0000000000000000E+000  0.0000000000000000E+000  0.0000000000000000E+000
           0.0000000000000000E+000  0.0000000000000000E+000  0.0000000000000000E+000
       &END VELOCITY
     &END REPLICA
     &PROGRAM_RUN_INFO SILENT
     &END PROGRAM_RUN_INFO
     &CONVERGENCE_INFO SILENT
     &END CONVERGENCE_INFO
   &END BAND
   &PRINT
     &VELOCITIES OFF
     &END VELOCITIES
   &END PRINT
 &END MOTION
 &FORCE_EVAL
   METHOD FIST
   &MM
     &FORCEFIELD
       PARMTYPE CHM
       PARM_FILE_NAME ./amber/mol.pot
       &SPLINE
         R0_NB  5.2917720859000010E-005
         RCUT_NB  2.0000000000000004E+001
         EMAX_SPLINE  1.0000000000000000E+010
         EMAX_ACCURACY  5.0000000000000000E+002
         EPS_SPLINE  9.9999999999999995E-007
       &END SPLINE
     &END FORCEFIELD
     &POISSON
       &EWALD
         EWALD_TYPE EWALD
         ALPHA  3.5999999999999999E-001
         GMAX 29
       &END EWALD
     &END POISSON
     &PRINT
       &FF_INFO SILENT
         SPLINE_INFO T
       &END FF_INFO
     &END PRINT
   &END MM
   &SUBSYS
     &CELL
       A  3.0000000000000007E+001  0.0000000000000000E+000  0.0000000000000000E+000
       B  0.0000000000000000E+000  3.0000000000000007E+001  0.0000000000000000E+000
       C  0.0000000000000000E+000  0.0000000000000000E+000  3.0000000000000007E+001
       MULTIPLE_UNIT_CELL 1 1 1
     &END CELL
     &COORD
       N3  3.3290000000000006E+000  1.5780000000000003E+000 -2.8199999999999997E-001
       H11  4.0149999999999997E+000  9.6499999999999997E-001 -7.0000000000000007E-001
       H11  2.6180000000000003E+000  1.7849999999999999E+000 -9.6900000000000008E-001
       H11  3.0670000000000002E+000  1.2050000000000001E+000  6.1899999999999999E-001
       CT1  3.9700000000000006E+000  2.8460000000000001E+000  0.0000000000000000E+000
       HP  3.6899999999999999E+000  3.5730000000000000E+000 -7.6200000000000001E-001
       HP  3.6509999999999998E+000  3.2050000000000001E+000  9.7899999999999998E-001
       C1  5.4840000000000000E+000  2.6870000000000003E+000  0.0000000000000000E+000
       O  5.9930000000000012E+000  1.5680000000000001E+000  0.0000000000000000E+000
       N  6.2030000000000012E+000  3.8110000000000004E+000  0.0000000000000000E+000
       H2  5.7450000000000001E+000  4.7030000000000003E+000 -1.2200000000000000E-001
       CT2  7.6420000000000003E+000  3.7999999999999998E+000  1.7100000000000001E-001
       H12  7.8830000000000000E+000  3.5540000000000003E+000  1.2050000000000001E+000
       H12  8.0809999999999995E+000  3.0550000000000006E+000 -4.9200000000000005E-001
       C2  8.2270000000000003E+000  5.1660000000000013E+000 -1.6200000000000003E-001
       O2  7.5410000000000004E+000  6.0170000000000003E+000 -7.2399999999999998E-001
       O2  9.3910000000000018E+000  5.4320000000000004E+000  1.2600000000000000E-001
     &END COORD
     &TOPOLOGY
       CHARGE_BETA T
       COORD_FILE_NAME ./amber/mol.pdb
       COORD_FILE_FORMAT PDB
       NUMBER_OF_ATOMS 17
       CONN_FILE_NAME ./amber/mol.psf
       CONN_FILE_FORMAT UPSF
       MULTIPLE_UNIT_CELL 1 1 1
     &END TOPOLOGY
   &END SUBSYS
 &END FORCE_EVAL
