 # Version information for this restart file 
 # current date 2026-04-22 11:54:42.121
 # current working dir /DATA/lab07/hglee/cp2k_agent/test/level7
 # Program compiled at                                       2026-03-01 16:41:12
 # Program compiled on                                                    master
 # Program compiled for                                                   x86_64
 # Source code revision number                                       git:5e54ba2
 &GLOBAL
   PRINT_LEVEL LOW
   PROJECT_NAME "2gly_B-NEB-r-0"
   OUTPUT_FILE_NAME 2gly_B-NEB-r-0.out
   RUN_TYPE BAND
 &END GLOBAL
 &MOTION
   &BAND
     NPROC_REP 1
     BAND_TYPE B-NEB
     NUMBER_OF_REPLICA 5
     ROTATE_FRAMES T
     K_SPRING  5.0000000000000003E-002
     &CONVERGENCE_CONTROL
       MAX_FORCE  1.0000000000000000E-003
       RMS_FORCE  5.0000000000000001E-004
     &END CONVERGENCE_CONTROL
     &OPTIMIZE_BAND
       OPT_TYPE MD
       &MD
         MAX_STEPS 20
         TIMESTEP  4.9999999999999994E-001
         TEMPERATURE  1.0000000000000001E+002
         &VEL_CONTROL
           ANNEALING  9.4999999999999996E-001
           PROJ_VELOCITY_VERLET T
         &END VEL_CONTROL
       &END MD
     &END OPTIMIZE_BAND
     &REPLICA
       &COORD
           3.3290000000000006E+000  1.5780000000000003E+000 -2.8199999999999997E-001
           4.0149999999999997E+000  9.6499999999999997E-001 -7.0000000000000007E-001
           2.6180000000000003E+000  1.7849999999999999E+000 -9.6900000000000008E-001
           3.0670000000000002E+000  1.2050000000000001E+000  6.1899999999999999E-001
           3.9700000000000006E+000  2.8460000000000001E+000  0.0000000000000000E+000
           3.6899999999999999E+000  3.5730000000000000E+000 -7.6200000000000001E-001
           3.6509999999999998E+000  3.2050000000000001E+000  9.7899999999999998E-001
           5.4840000000000000E+000  2.6870000000000003E+000  0.0000000000000000E+000
           5.9930000000000012E+000  1.5680000000000001E+000  0.0000000000000000E+000
           6.2030000000000012E+000  3.8110000000000004E+000  0.0000000000000000E+000
           5.7450000000000001E+000  4.7030000000000003E+000 -1.2200000000000000E-001
           7.6420000000000003E+000  3.7999999999999998E+000  1.7100000000000001E-001
           7.8830000000000000E+000  3.5540000000000003E+000  1.2050000000000001E+000
           8.0809999999999995E+000  3.0550000000000006E+000 -4.9200000000000005E-001
           8.2270000000000003E+000  5.1660000000000013E+000 -1.6200000000000003E-001
           7.5410000000000004E+000  6.0170000000000003E+000 -7.2399999999999998E-001
           9.3910000000000018E+000  5.4320000000000004E+000  1.2600000000000000E-001
       &END COORD
       &VELOCITY
           0.0000000000000000E+000  0.0000000000000000E+000  0.0000000000000000E+000
           0.0000000000000000E+000  0.0000000000000000E+000  0.0000000000000000E+000
           0.0000000000000000E+000  0.0000000000000000E+000  0.0000000000000000E+000
           0.0000000000000000E+000  0.0000000000000000E+000  0.0000000000000000E+000
           0.0000000000000000E+000  0.0000000000000000E+000  0.0000000000000000E+000
           0.0000000000000000E+000  0.0000000000000000E+000  0.0000000000000000E+000
           0.0000000000000000E+000  0.0000000000000000E+000  0.0000000000000000E+000
           0.0000000000000000E+000  0.0000000000000000E+000  0.0000000000000000E+000
           0.0000000000000000E+000  0.0000000000000000E+000  0.0000000000000000E+000
           0.0000000000000000E+000  0.0000000000000000E+000  0.0000000000000000E+000
           0.0000000000000000E+000  0.0000000000000000E+000  0.0000000000000000E+000
           0.0000000000000000E+000  0.0000000000000000E+000  0.0000000000000000E+000
           0.0000000000000000E+000  0.0000000000000000E+000  0.0000000000000000E+000
           0.0000000000000000E+000  0.0000000000000000E+000  0.0000000000000000E+000
           0.0000000000000000E+000  0.0000000000000000E+000  0.0000000000000000E+000
           0.0000000000000000E+000  0.0000000000000000E+000  0.0000000000000000E+000
           0.0000000000000000E+000  0.0000000000000000E+000  0.0000000000000000E+000
       &END VELOCITY
     &END REPLICA
     &REPLICA
       &COORD
           3.4506469752692830E+000  1.9607456000067829E+000 -8.0098177638134171E-001
           3.4800449283253299E+000  1.8039473964482520E+000 -1.7955893105053484E+000
           3.3589649177928496E+000  2.9519921357247951E+000 -6.2498920177155726E-001
           2.7894745106854986E+000  1.3228265185486399E+000 -3.8699265011088052E-001
           4.7379763511945168E+000  1.5942594803657244E+000 -2.4818574152855552E-001
           4.5938465994299911E+000  9.5737518772137820E-001  6.2709840003482487E-001
           5.3135465626389866E+000  1.0510072034764306E+000 -9.9775871312689413E-001
           5.5089492444332615E+000  2.8414259592043543E+000  1.6789636373954653E-001
           5.1683941071071109E+000  3.4823980243659109E+000  1.1616349486604294E+000
           6.5546249851607437E+000  3.1737546252706914E+000 -5.8896679218687154E-001
           6.4673147422746702E+000  3.2054810603281063E+000 -1.5958436388647261E+000
           7.8415606039350205E+000  3.5041570734851719E+000 -1.4616678050321380E-002
           7.8540896090000185E+000  3.2210692249730788E+000  1.0360889781218059E+000
           8.6262710218171481E+000  2.9617834095224573E+000 -5.4494652619064565E-001
           8.1118072711684608E+000  4.9991378404521418E+000 -1.3044578189355735E-001
           7.4989464185864270E+000  5.7993757383957671E+000  5.7263491293071311E-001
           8.9495184702935209E+000  5.4169419750134287E+000 -9.3163329030830622E-001
       &END COORD
       &VELOCITY
           1.2028805012090852E-004 -5.7397918329224817E-005 -6.4767541079961528E-005
           9.4600611402957927E-006  2.4067500926463560E-005  4.4926263688255350E-005
           2.3913402123756927E-005 -5.7338773081954212E-005  1.4514411767816346E-004
          -3.8074031001208750E-005  1.7273619260019084E-004 -4.2096946885412450E-005
           1.1698440339017072E-004 -7.1834587452255245E-007  2.5160923046111638E-005
           8.8576648606226723E-007 -3.6718869008849590E-005  7.4194320835245593E-005
           7.2041517626686912E-005 -7.9016693228486527E-005  1.8087202491617046E-005
           4.1738121046899025E-005  1.2601746444006488E-004 -3.2613408547204342E-005
          -8.4566944864503915E-005 -3.8862613142409818E-005  9.7681851323377897E-006
          -3.4560256499770101E-005  2.3415953997212650E-005 -5.6230878882867046E-005
           1.9869667521362795E-004 -9.4631003286004101E-005 -5.4388368022035320E-005
           2.5133327394577338E-005  4.5985606345424866E-005 -3.1221335861025513E-005
           2.3635996496588997E-005 -6.0088307042310662E-005 -3.3710902767679934E-005
          -7.6545757158295151E-006 -4.8401719764186865E-006 -3.4572305006998614E-005
           2.4160233903759206E-006  4.7836003930780059E-005 -3.8128539954965951E-006
          -1.7595519800468865E-004 -9.0692943263316500E-005  1.8026253695970317E-004
           1.6225226051457990E-005 -1.3446736492798154E-004 -1.8292875392421910E-004
       &END VELOCITY
     &END REPLICA
     &REPLICA
       &COORD
           4.6892358039418358E+000  1.1732912959048520E+000 -2.5385409763752342E-001
           3.9843055544196129E+000  5.9175188184853122E-001  1.7267492062374337E-001
           5.6021243045494566E+000  6.9199642212164902E-001 -1.8701000508353299E-001
           4.3943340385491245E+000  1.5062108823246450E+000 -1.1597731221754866E+000
           4.8024593650374197E+000  2.3721247666934833E+000  5.5756643501804348E-001
           3.8320474638613131E+000  2.6435788091771082E+000  9.5278545181389729E-001
           5.4957082331280676E+000  2.1863775230640865E+000  1.3756629180427475E+000
           5.3086350334115258E+000  3.5388690355308063E+000 -2.7807815922376627E-001
           4.8135415392938370E+000  4.6540480568422709E+000 -1.4797660164219600E-001
           6.2879261663597887E+000  3.2735555846189786E+000 -1.1379539421958869E+000
           6.0596313549897163E+000  3.0412181319040719E+000 -2.0814360725000745E+000
           7.6826255748500749E+000  3.3341297785667328E+000 -7.5594034963723322E-001
           7.9489178715000701E+000  2.4490703762086947E+000 -2.1064508366031157E-001
           8.2920269487026541E+000  3.4171961997269209E+000 -1.6357497887539325E+000
           7.9432219651863987E+000  4.5450168583024952E+000  1.2263198218699559E-001
           8.6775625207546359E+000  4.4412950897728294E+000  1.1133278845432488E+000
           7.4256377886394551E+000  5.6263261722699802E+000 -1.5974986747601219E-001
       &END COORD
       &VELOCITY
           9.5450621600201286E-004 -3.5543380343607396E-004  8.1296730390342559E-004
           9.8475055300733605E-004  8.7659906204048482E-005  1.2771432392824677E-003
           1.3060817379153321E-003 -4.2251057224672122E-004  4.1988508048569846E-005
           1.4593266648360230E-003 -2.4666491131899315E-004  1.6574102083655805E-004
           2.9542936927865967E-004  5.2196793812066896E-004  5.4298285905561332E-005
           3.2675138317789340E-004  7.7187664740751248E-004 -6.6467908727720743E-004
          -2.2314407659155305E-004  4.5711065535890147E-004  4.3316109317507583E-004
          -7.9707279789044358E-006  5.0220068354270980E-004 -1.0480601041865381E-004
          -7.2615502238351684E-004  7.6220503671430381E-005 -6.9736637535435366E-004
          -2.3598661916140597E-004  4.7974604966100325E-004  1.5724642819138192E-004
          -2.7782641739009894E-004  1.0595593931029474E-003  2.9973724932414857E-004
          -3.4184360671716602E-004  4.9322686631141674E-004  1.5161592866446533E-004
          -7.2513340659079452E-005  6.1499580380785634E-004 -2.5367194210606495E-004
          -5.2621260722888097E-004  6.5794012828019753E-004  4.3811241966316901E-004
           7.9139804675915597E-005 -7.5963868966002064E-005  2.7767466183702914E-004
           4.4144377596149620E-004 -1.3562550417765928E-003  1.7586593162723752E-004
          -6.4604208837861410E-004 -2.7748792331908268E-004 -3.2901214596379482E-004
       &END VELOCITY
     &END REPLICA
     &REPLICA
       &COORD
           6.1474252626143304E+000  1.8747500122335219E+000  4.4524259524546866E-001
           6.0344455571885671E+000  2.5309334892753883E+000  1.2035801252723426E+000
           7.1442401175356176E+000  1.8861923040346524E+000  2.3097200937479942E-001
           5.8020076037230437E+000  9.6176165055399632E-001  6.6225336506228161E-001
           5.4594480042312128E+000  2.4506121867714561E+000 -7.0335015080078678E-001
           6.1424245059392995E+000  2.4719900024586736E+000 -1.5545317369350142E+000
           4.6080190068463303E+000  1.8224096052291234E+000 -9.4205997185408463E-001
           4.9745830113561622E+000  3.8719554575185406E+000 -4.0329670415991770E-001
           3.7865718747529602E+000  4.0796860670871364E+000 -6.3221551832707790E-001
           5.7067123353564941E+000  4.8809089256394964E+000  1.0909450754517687E-001
           5.3089865762753075E+000  5.7979295801983408E+000  3.1268395603253209E-002
           7.0270407892617870E+000  4.9072039529358831E+000  7.0509880019352134E-001
           7.4235336631415274E+000  5.9195256275904811E+000  6.5027322352144978E-001
           6.9265858282889656E+000  4.6450015527054633E+000  1.7557549881776215E+000
           7.9628604821133688E+000  3.9608168040984637E+000 -4.3751242060661487E-003
           8.4646527388702566E+000  3.0747258435604548E+000  7.1339998252170866E-001
           7.8943560541392124E+000  3.8953669529743604E+000 -1.2436595836969220E+000
       &END COORD
       &VELOCITY
           1.0524392451604125E-004  1.7312041147758116E-005 -5.7936699232516068E-005
           8.7929613038441453E-005 -1.9836559027859707E-004  5.7829080726848022E-005
           1.7192102423642879E-004 -5.2508962744213608E-005 -7.7075435951497493E-005
           1.0375146198758427E-004  2.3415369851157908E-005 -3.5624909594223641E-005
           6.3273111525119030E-005  7.1658661294800370E-005  9.3572961049885646E-005
          -1.4283999240659494E-004  1.0014431628844970E-004  9.4122059778607128E-006
          -4.0518697369995017E-005  3.9860262742354140E-005  1.8472287893717720E-004
           1.4695038031209738E-005 -5.3461914188199945E-006 -2.7587772992561167E-005
           5.6233472521891991E-005  4.4532945904276598E-005 -2.6851655030940913E-005
           2.2070777338529202E-005 -9.2755795765388319E-005 -4.1412005877523094E-005
          -5.6438387024697261E-005 -7.7692419355377762E-005 -5.0129184585904613E-005
           2.4920576393617397E-005  1.9165338761797847E-006 -8.9232011563207235E-005
           6.8594098419359035E-005 -5.3020215583510127E-005 -1.8228327987295707E-004
           6.8939359922019704E-005  1.0906273435664149E-004 -7.4514598472491249E-005
          -5.1163493173530400E-005  1.6284076623909889E-006  1.7228125395731208E-005
           2.0720413039866698E-005 -1.0292800343938704E-004  1.2903955101987300E-004
          -1.6958809427317662E-004  8.6025478974536442E-005 -4.6928576424912869E-005
       &END VELOCITY
     &END REPLICA
     &REPLICA
       &COORD
           3.5778059106008611E+000  1.4613494952425636E+000 -2.8998990337263364E-003
           2.9841119862370720E+000  2.2277020568720829E+000 -2.8806699997175345E-001
           3.4150203622699009E+000  1.2716675970519347E+000  9.7541275178572939E-001
           3.4959357744925206E+000  7.1796003580701939E-001 -6.8187588713178160E-001
           4.9547461651504321E+000  1.9038257696608112E+000 -8.3393886249617355E-002
           5.5031486680983619E+000  1.5465122165196554E+000  7.8876706191424539E-001
           5.4129228126577464E+000  1.5054887203342555E+000 -9.8836612605190677E-001
           5.0223064815616150E+000  3.4241563737621039E+000 -1.2221988114249371E-001
           4.0269257045788089E+000  4.0988225387098103E+000  1.3328877759114616E-001
           6.2004838465586936E+000  3.9620643434912011E+000 -4.4298476810873133E-001
           6.2573662187139565E+000  4.6495322626403359E+000 -1.1816005382346797E+000
           7.4239932948963938E+000  3.5908288660806615E+000  2.3944533830521197E-001
           7.2607242741559457E+000  3.6190077400644234E+000  1.3173494054315324E+000
           7.7142356025800121E+000  2.5841912764881263E+000 -5.8861828973451276E-002
           8.5451105010293187E+000  4.5562239247102516E+000 -1.1754008280646483E-001
           8.2987632048175968E+000  5.6079318061241601E+000 -7.0391585125280953E-001
           9.7084084781858611E+000  4.2958709150665202E+000  1.7785816822585354E-001
       &END COORD
       &VELOCITY
           0.0000000000000000E+000  0.0000000000000000E+000  0.0000000000000000E+000
           0.0000000000000000E+000  0.0000000000000000E+000  0.0000000000000000E+000
           0.0000000000000000E+000  0.0000000000000000E+000  0.0000000000000000E+000
           0.0000000000000000E+000  0.0000000000000000E+000  0.0000000000000000E+000
           0.0000000000000000E+000  0.0000000000000000E+000  0.0000000000000000E+000
           0.0000000000000000E+000  0.0000000000000000E+000  0.0000000000000000E+000
           0.0000000000000000E+000  0.0000000000000000E+000  0.0000000000000000E+000
           0.0000000000000000E+000  0.0000000000000000E+000  0.0000000000000000E+000
           0.0000000000000000E+000  0.0000000000000000E+000  0.0000000000000000E+000
           0.0000000000000000E+000  0.0000000000000000E+000  0.0000000000000000E+000
           0.0000000000000000E+000  0.0000000000000000E+000  0.0000000000000000E+000
           0.0000000000000000E+000  0.0000000000000000E+000  0.0000000000000000E+000
           0.0000000000000000E+000  0.0000000000000000E+000  0.0000000000000000E+000
           0.0000000000000000E+000  0.0000000000000000E+000  0.0000000000000000E+000
           0.0000000000000000E+000  0.0000000000000000E+000  0.0000000000000000E+000
           0.0000000000000000E+000  0.0000000000000000E+000  0.0000000000000000E+000
           0.0000000000000000E+000  0.0000000000000000E+000  0.0000000000000000E+000
       &END VELOCITY
     &END REPLICA
     &PROGRAM_RUN_INFO SILENT
     &END PROGRAM_RUN_INFO
     &CONVERGENCE_INFO SILENT
     &END CONVERGENCE_INFO
   &END BAND
   &PRINT
     &VELOCITIES OFF
     &END VELOCITIES
   &END PRINT
 &END MOTION
 &FORCE_EVAL
   METHOD FIST
   &MM
     &FORCEFIELD
       PARMTYPE CHM
       PARM_FILE_NAME ./amber/mol.pot
       &SPLINE
         R0_NB  5.2917720859000010E-005
         RCUT_NB  2.0000000000000004E+001
         EMAX_SPLINE  1.0000000000000000E+010
         EMAX_ACCURACY  5.0000000000000000E+002
         EPS_SPLINE  9.9999999999999995E-007
       &END SPLINE
     &END FORCEFIELD
     &POISSON
       &EWALD
         EWALD_TYPE EWALD
         ALPHA  3.5999999999999999E-001
         GMAX 29
       &END EWALD
     &END POISSON
     &PRINT
       &FF_INFO SILENT
         SPLINE_INFO T
       &END FF_INFO
     &END PRINT
   &END MM
   &SUBSYS
     &CELL
       A  3.0000000000000007E+001  0.0000000000000000E+000  0.0000000000000000E+000
       B  0.0000000000000000E+000  3.0000000000000007E+001  0.0000000000000000E+000
       C  0.0000000000000000E+000  0.0000000000000000E+000  3.0000000000000007E+001
       MULTIPLE_UNIT_CELL 1 1 1
     &END CELL
     &COORD
       N3  3.3290000000000006E+000  1.5780000000000003E+000 -2.8199999999999997E-001
       H11  4.0149999999999997E+000  9.6499999999999997E-001 -7.0000000000000007E-001
       H11  2.6180000000000003E+000  1.7849999999999999E+000 -9.6900000000000008E-001
       H11  3.0670000000000002E+000  1.2050000000000001E+000  6.1899999999999999E-001
       CT1  3.9700000000000006E+000  2.8460000000000001E+000  0.0000000000000000E+000
       HP  3.6899999999999999E+000  3.5730000000000000E+000 -7.6200000000000001E-001
       HP  3.6509999999999998E+000  3.2050000000000001E+000  9.7899999999999998E-001
       C1  5.4840000000000000E+000  2.6870000000000003E+000  0.0000000000000000E+000
       O  5.9930000000000012E+000  1.5680000000000001E+000  0.0000000000000000E+000
       N  6.2030000000000012E+000  3.8110000000000004E+000  0.0000000000000000E+000
       H2  5.7450000000000001E+000  4.7030000000000003E+000 -1.2200000000000000E-001
       CT2  7.6420000000000003E+000  3.7999999999999998E+000  1.7100000000000001E-001
       H12  7.8830000000000000E+000  3.5540000000000003E+000  1.2050000000000001E+000
       H12  8.0809999999999995E+000  3.0550000000000006E+000 -4.9200000000000005E-001
       C2  8.2270000000000003E+000  5.1660000000000013E+000 -1.6200000000000003E-001
       O2  7.5410000000000004E+000  6.0170000000000003E+000 -7.2399999999999998E-001
       O2  9.3910000000000018E+000  5.4320000000000004E+000  1.2600000000000000E-001
     &END COORD
     &TOPOLOGY
       CHARGE_BETA T
       COORD_FILE_NAME ./amber/mol.pdb
       COORD_FILE_FORMAT PDB
       NUMBER_OF_ATOMS 17
       CONN_FILE_NAME ./amber/mol.psf
       CONN_FILE_FORMAT UPSF
       MULTIPLE_UNIT_CELL 1 1 1
     &END TOPOLOGY
   &END SUBSYS
 &END FORCE_EVAL
