 # Version information for this restart file 
 # current date 2026-04-22 11:54:42.295
 # current working dir /DATA/lab07/hglee/cp2k_agent/test/level7
 # Program compiled at                                       2026-03-01 16:41:12
 # Program compiled on                                                    master
 # Program compiled for                                                   x86_64
 # Source code revision number                                       git:5e54ba2
 &GLOBAL
   PRINT_LEVEL LOW
   PROJECT_NAME "2gly_B-NEB-r-0"
   OUTPUT_FILE_NAME 2gly_B-NEB-r-0.out
   RUN_TYPE BAND
 &END GLOBAL
 &MOTION
   &BAND
     NPROC_REP 1
     BAND_TYPE B-NEB
     NUMBER_OF_REPLICA 5
     ROTATE_FRAMES T
     K_SPRING  5.0000000000000003E-002
     &CONVERGENCE_CONTROL
       MAX_FORCE  1.0000000000000000E-003
       RMS_FORCE  5.0000000000000001E-004
     &END CONVERGENCE_CONTROL
     &OPTIMIZE_BAND
       OPT_TYPE MD
       &MD
         MAX_STEPS 20
         TIMESTEP  4.9999999999999994E-001
         TEMPERATURE  1.0000000000000001E+002
         &VEL_CONTROL
           ANNEALING  9.4999999999999996E-001
           PROJ_VELOCITY_VERLET T
         &END VEL_CONTROL
       &END MD
     &END OPTIMIZE_BAND
     &REPLICA
       &COORD
           3.3290000000000006E+000  1.5780000000000003E+000 -2.8199999999999997E-001
           4.0149999999999997E+000  9.6499999999999997E-001 -7.0000000000000007E-001
           2.6180000000000003E+000  1.7849999999999999E+000 -9.6900000000000008E-001
           3.0670000000000002E+000  1.2050000000000001E+000  6.1899999999999999E-001
           3.9700000000000006E+000  2.8460000000000001E+000  0.0000000000000000E+000
           3.6899999999999999E+000  3.5730000000000000E+000 -7.6200000000000001E-001
           3.6509999999999998E+000  3.2050000000000001E+000  9.7899999999999998E-001
           5.4840000000000000E+000  2.6870000000000003E+000  0.0000000000000000E+000
           5.9930000000000012E+000  1.5680000000000001E+000  0.0000000000000000E+000
           6.2030000000000012E+000  3.8110000000000004E+000  0.0000000000000000E+000
           5.7450000000000001E+000  4.7030000000000003E+000 -1.2200000000000000E-001
           7.6420000000000003E+000  3.7999999999999998E+000  1.7100000000000001E-001
           7.8830000000000000E+000  3.5540000000000003E+000  1.2050000000000001E+000
           8.0809999999999995E+000  3.0550000000000006E+000 -4.9200000000000005E-001
           8.2270000000000003E+000  5.1660000000000013E+000 -1.6200000000000003E-001
           7.5410000000000004E+000  6.0170000000000003E+000 -7.2399999999999998E-001
           9.3910000000000018E+000  5.4320000000000004E+000  1.2600000000000000E-001
       &END COORD
       &VELOCITY
           0.0000000000000000E+000  0.0000000000000000E+000  0.0000000000000000E+000
           0.0000000000000000E+000  0.0000000000000000E+000  0.0000000000000000E+000
           0.0000000000000000E+000  0.0000000000000000E+000  0.0000000000000000E+000
           0.0000000000000000E+000  0.0000000000000000E+000  0.0000000000000000E+000
           0.0000000000000000E+000  0.0000000000000000E+000  0.0000000000000000E+000
           0.0000000000000000E+000  0.0000000000000000E+000  0.0000000000000000E+000
           0.0000000000000000E+000  0.0000000000000000E+000  0.0000000000000000E+000
           0.0000000000000000E+000  0.0000000000000000E+000  0.0000000000000000E+000
           0.0000000000000000E+000  0.0000000000000000E+000  0.0000000000000000E+000
           0.0000000000000000E+000  0.0000000000000000E+000  0.0000000000000000E+000
           0.0000000000000000E+000  0.0000000000000000E+000  0.0000000000000000E+000
           0.0000000000000000E+000  0.0000000000000000E+000  0.0000000000000000E+000
           0.0000000000000000E+000  0.0000000000000000E+000  0.0000000000000000E+000
           0.0000000000000000E+000  0.0000000000000000E+000  0.0000000000000000E+000
           0.0000000000000000E+000  0.0000000000000000E+000  0.0000000000000000E+000
           0.0000000000000000E+000  0.0000000000000000E+000  0.0000000000000000E+000
           0.0000000000000000E+000  0.0000000000000000E+000  0.0000000000000000E+000
       &END VELOCITY
     &END REPLICA
     &REPLICA
       &COORD
           3.9980612230189263E+000  1.3184995052426940E+000 -7.9180114615695618E-001
           4.4689391356967647E+000  5.5180406546609495E-001 -1.2104674289302617E+000
           4.0404127029614072E+000  2.1308458383076090E+000 -1.3772901433323805E+000
           3.0782452920913883E+000  1.0138384193363843E+000 -5.6647226278598961E-001
           4.6774173708819591E+000  1.7455083106455569E+000  4.0956307456794433E-001
           3.9330385233081109E+000  1.8565815670828090E+000  1.2188994535971998E+000
           5.4180372041978124E+000  9.8412183595847580E-001  6.8836945524213411E-001
           5.3583420167125793E+000  3.0883008355151778E+000  9.7777818648644488E-002
           4.6638160134188240E+000  4.1189253531664889E+000 -3.5747546562893499E-004
           6.6976962032015654E+000  3.0249021843324040E+000  3.3343388431202716E-003
           7.1945097990871911E+000  2.2885027976837629E+000 -5.1112515073631004E-001
           7.5247277305127991E+000  3.9429379966765992E+000  7.6280080194769306E-001
           6.9263578510843873E+000  4.4357699909097974E+000  1.5270784519496110E+000
           8.3291396501844819E+000  3.3936343589015996E+000  1.2542152753431741E+000
           8.1186047709985321E+000  4.9754910517471345E+000 -1.6333624108978356E-001
           7.3705124916143774E+000  5.8613141092939580E+000 -5.8848367257329692E-001
           9.3121280743798813E+000  4.8524144092556662E+000 -4.6943215474343808E-001
       &END COORD
       &VELOCITY
           6.9836222495990195E-004 -6.5940144271891058E-006  5.1319658274851573E-004
           5.0756686436240911E-004 -2.5059407763631232E-005  6.4625421089657806E-004
           1.1488372054874625E-003  5.2690523855391756E-005  7.7064157095177487E-004
           4.3769075511840175E-004  1.8008670281359902E-004 -3.0248959791189846E-004
           4.5457243347146384E-004  5.3882576316378297E-005  3.7115836261147759E-004
           3.5941010902634091E-004 -2.5720676629282060E-004  1.7075489637741984E-004
           4.5492850296051103E-004  1.7393420749184542E-004  1.4541859488215013E-004
           9.9797427872749675E-005  2.2278940071096480E-004 -2.5196649326761632E-004
          -2.0767517717904237E-004  2.8535770956084034E-004 -4.0384137495236202E-004
           2.6600618827512889E-004 -2.0714192003582415E-004 -5.9952541223381181E-004
           5.0275089200669881E-004 -7.4448455266203160E-004 -9.1643389168709862E-005
           2.2049448762589956E-006 -2.6517836841902920E-004  8.6769755452353589E-006
          -1.8393273796729541E-004 -1.5020607725566444E-004  1.2695616398321221E-005
           1.8890004194427101E-004 -3.1366762686199140E-005  1.6937939781277894E-004
          -2.3110716207962889E-004 -3.1102268037345234E-004  1.4651324614552784E-004
          -3.3577883339969502E-004 -3.0473687278713250E-004  7.1373143653748054E-004
          -5.3131787124612950E-004 -5.3459542372145963E-004 -4.9430787868260957E-004
       &END VELOCITY
     &END REPLICA
     &REPLICA
       &COORD
           4.8293118019709995E+000  1.5162239937145561E+000  8.7263196063161075E-001
           3.9119953994332808E+000  1.3375148623287179E+000  1.2791961802019591E+000
           5.5890092013838508E+000  1.2884309711388291E+000  1.5527347808967069E+000
           5.0807180762865212E+000  1.0548607283469040E+000  8.5146548506272110E-003
           4.6429188467824298E+000  2.9205042702924073E+000  4.1318430771087317E-001
           3.7157018951573484E+000  3.0676302120579968E+000 -1.0858770346594901E-001
           4.6761893912345087E+000  3.5187867118872691E+000  1.3040189827167465E+000
           5.4865216013672553E+000  3.3832055508285137E+000 -7.4982335725799543E-001
           5.0145660644707091E+000  3.9521037722371037E+000 -1.7373007808014294E+000
           6.6425043491247955E+000  2.8112811283029977E+000 -7.7583243947412439E-001
           6.8477593117448547E+000  2.3211589772029955E+000 -1.6071358493446477E+000
           7.7152935718492008E+000  3.2665023262190123E+000  5.6279044740452470E-002
           7.6981068546123570E+000  2.8602032823064012E+000  1.0256693334359994E+000
           8.6162965475257867E+000  3.0504590163152052E+000 -4.3444557119049382E-001
           7.7576924601610182E+000  4.7057431298513386E+000  2.5697715605775917E-001
           8.0279523953328251E+000  5.0755840217794388E+000  1.4316869181230172E+000
           7.5088815905483646E+000  5.3096017835953333E+000 -8.0526887510331902E-001
       &END COORD
       &VELOCITY
           1.9349106834800989E-003  2.3999712957225735E-003  2.6694554786360330E-003
           2.1604899360298797E-003  2.4633941795426432E-003  3.0881763647458631E-003
           1.8438087321566694E-003  3.3629089577468189E-003  2.6418309480422662E-003
           1.8534324938402776E-003  5.1213808283327733E-004  3.6399777016585893E-003
           9.4319695003821518E-004  1.5010074738071783E-003  1.8028977398383138E-004
           1.0012905683154591E-003 -9.0400731722593819E-004 -6.0852231607391055E-004
          -3.9886250910336064E-004  3.2423655355288141E-003 -1.0277425629606849E-003
          -5.8512856467413780E-005  4.6612108492870936E-004 -9.8391402572988351E-004
          -1.2928312072713161E-003 -2.3247553713097234E-003 -2.0212026777042314E-003
          -1.0183645015420023E-004  3.0985260366459596E-004 -1.6280719722135619E-003
           6.1573854977871312E-004  4.1936565554328720E-003 -3.7637402998115530E-003
          -1.0481754660027650E-004 -1.6654948484608674E-005 -1.1162694121560211E-003
           5.3001103970310012E-004 -1.1613606800081938E-003 -1.3344892814455256E-003
          -2.0318065936860227E-004  1.4738654503766253E-003 -2.2785402914366534E-003
          -7.3315899884089284E-004 -7.2010545527103102E-005  8.2101147954077251E-004
          -7.4841679863452712E-004 -1.2398375230512407E-003  1.1352438489407343E-003
          -1.1031857049558468E-003  1.2895947568365967E-003  1.7682269706716090E-003
       &END VELOCITY
     &END REPLICA
     &REPLICA
       &COORD
           5.6045293917170698E+000  2.6543894793079410E+000  1.2845453163921685E+000
           5.2775811096606269E+000  3.6067775311542354E+000  1.3094878567891379E+000
           6.5750289290845290E+000  2.6936879746799689E+000  1.5940117207027540E+000
           5.0442099507234071E+000  2.0500866632435910E+000  1.8510496577455071E+000
           5.6036962846308747E+000  2.2278090143036651E+000 -1.1022633722672012E-001
           6.5680549715442043E+000  1.7834874411436497E+000 -3.5827064993806257E-001
           4.8176810674108239E+000  1.4873629704902478E+000 -2.2728085541255175E-001
           5.3386727816275412E+000  3.3699984132444580E+000 -1.0878734983593177E+000
           4.4706587577188976E+000  3.1539372126540464E+000 -1.9292537125086742E+000
           5.9434321900395499E+000  4.5698283716265768E+000 -1.1029282681033625E+000
           5.8108044369887315E+000  5.1085962534647313E+000 -1.9408209389455702E+000
           6.8460684330057138E+000  5.2122941184451896E+000 -1.6784779380368700E-001
           7.4508383584958544E+000  5.9424317283703987E+000 -7.0231519468697112E-001
           6.2480751147803719E+000  5.7354149298364181E+000  5.7691136456741587E-001
           7.7663453244729750E+000  4.2099067273892921E+000  4.7235289658433322E-001
           7.7038526422611406E+000  4.1354262639430086E+000  1.7177512754435020E+000
           8.2416169997893149E+000  3.3287327914504421E+000 -2.6266276606242878E-001
       &END COORD
       &VELOCITY
          -1.2948052029636712E-004 -9.0441127266960097E-005  1.8595653610552685E-005
          -7.0103287926593960E-005 -6.3190578628140841E-005  2.5328081505226327E-005
          -1.3186872410239173E-004  6.1070941736886345E-005 -1.4409507178686650E-004
           1.4541789009208482E-004 -2.7723293190106004E-004  1.5433676953101054E-004
          -4.6038663081139857E-005 -6.9732740039114613E-005  3.9259951582062372E-005
          -2.7691320335052693E-005 -1.7210915195642380E-004  2.3425502512693710E-004
          -2.2416787183190364E-006 -1.8515863202265935E-004 -5.5494522006300626E-005
          -8.2713919383102343E-005 -2.8357790841257882E-006  2.6202241514360807E-007
          -1.4920670102504159E-005  1.3407743100182801E-005  9.2568183023826941E-005
           1.0202822933736698E-005  1.9254170649740470E-004  4.2827864141774984E-005
          -9.8367176556045109E-006  2.4703940384029216E-004  4.5802274727296894E-005
           1.0400663709440862E-004  8.3787090084799093E-005 -1.4171115155943467E-004
           5.0287811329919828E-005  7.1671961561290930E-005 -2.7173621852792412E-004
           1.8697764284625746E-004  2.7155061659461490E-004  2.0148545870851417E-006
           4.1276071620797003E-005  1.4662589598948484E-004  2.6137618148990515E-004
           1.0718689619569009E-004  3.4014306306303370E-005 -3.5993212175140874E-004
           2.5241763252976376E-004 -3.7123662564786337E-004  7.7023977333643293E-005
       &END VELOCITY
     &END REPLICA
     &REPLICA
       &COORD
           3.4694305724313570E+000  1.6155230738539184E+000  8.6772090449618283E-002
           3.2366122991931969E+000  1.8759898449128136E+000 -8.6140601139652706E-001
           2.8453801292774585E+000  2.0970162622464654E+000  7.1788171161776748E-001
           3.5589353025838149E+000  6.1049074435021355E-001  1.3407874888888413E-001
           4.7894333095968502E+000  2.1321823704763205E+000  3.8490787342317728E-001
           4.7975372988305347E+000  2.5499055713604974E+000  1.3921440189231173E+000
           5.5192759636579707E+000  1.3254685569375286E+000  3.2075552850328609E-001
           5.1688802955487736E+000  3.2231100167584343E+000 -6.0674421043959059E-001
           4.3232238158788272E+000  3.7029512551370432E+000 -1.3589805458711621E+000
           6.4446623779975827E+000  3.6138999261359150E+000 -6.0617427068567353E-001
           6.9670334457088927E+000  3.6338475203301495E+000 -1.4711202580767990E+000
           7.1222634194505741E+000  4.0175867735436492E+000  6.0971871714336667E-001
           6.4959400580348738E+000  4.7232970723967043E+000  1.1565459485772751E+000
           7.3091396487347220E+000  3.1408981121519322E+000  1.2286219938480043E+000
           8.4502301222960696E+000  4.6846154990073119E+000  2.8122653224395927E-001
           8.7127914853749910E+000  5.0153731838017457E+000 -8.7301516019639058E-001
           9.2736985081915098E+000  4.9013595555582112E+000  1.1662281318925793E+000
       &END COORD
       &VELOCITY
           0.0000000000000000E+000  0.0000000000000000E+000  0.0000000000000000E+000
           0.0000000000000000E+000  0.0000000000000000E+000  0.0000000000000000E+000
           0.0000000000000000E+000  0.0000000000000000E+000  0.0000000000000000E+000
           0.0000000000000000E+000  0.0000000000000000E+000  0.0000000000000000E+000
           0.0000000000000000E+000  0.0000000000000000E+000  0.0000000000000000E+000
           0.0000000000000000E+000  0.0000000000000000E+000  0.0000000000000000E+000
           0.0000000000000000E+000  0.0000000000000000E+000  0.0000000000000000E+000
           0.0000000000000000E+000  0.0000000000000000E+000  0.0000000000000000E+000
           0.0000000000000000E+000  0.0000000000000000E+000  0.0000000000000000E+000
           0.0000000000000000E+000  0.0000000000000000E+000  0.0000000000000000E+000
           0.0000000000000000E+000  0.0000000000000000E+000  0.0000000000000000E+000
           0.0000000000000000E+000  0.0000000000000000E+000  0.0000000000000000E+000
           0.0000000000000000E+000  0.0000000000000000E+000  0.0000000000000000E+000
           0.0000000000000000E+000  0.0000000000000000E+000  0.0000000000000000E+000
           0.0000000000000000E+000  0.0000000000000000E+000  0.0000000000000000E+000
           0.0000000000000000E+000  0.0000000000000000E+000  0.0000000000000000E+000
           0.0000000000000000E+000  0.0000000000000000E+000  0.0000000000000000E+000
       &END VELOCITY
     &END REPLICA
     &PROGRAM_RUN_INFO SILENT
     &END PROGRAM_RUN_INFO
     &CONVERGENCE_INFO SILENT
     &END CONVERGENCE_INFO
   &END BAND
   &PRINT
     &VELOCITIES OFF
     &END VELOCITIES
   &END PRINT
 &END MOTION
 &FORCE_EVAL
   METHOD FIST
   &MM
     &FORCEFIELD
       PARMTYPE CHM
       PARM_FILE_NAME ./amber/mol.pot
       &SPLINE
         R0_NB  5.2917720859000010E-005
         RCUT_NB  2.0000000000000004E+001
         EMAX_SPLINE  1.0000000000000000E+010
         EMAX_ACCURACY  5.0000000000000000E+002
         EPS_SPLINE  9.9999999999999995E-007
       &END SPLINE
     &END FORCEFIELD
     &POISSON
       &EWALD
         EWALD_TYPE EWALD
         ALPHA  3.5999999999999999E-001
         GMAX 29
       &END EWALD
     &END POISSON
     &PRINT
       &FF_INFO SILENT
         SPLINE_INFO T
       &END FF_INFO
     &END PRINT
   &END MM
   &SUBSYS
     &CELL
       A  3.0000000000000007E+001  0.0000000000000000E+000  0.0000000000000000E+000
       B  0.0000000000000000E+000  3.0000000000000007E+001  0.0000000000000000E+000
       C  0.0000000000000000E+000  0.0000000000000000E+000  3.0000000000000007E+001
       MULTIPLE_UNIT_CELL 1 1 1
     &END CELL
     &COORD
       N3  3.3290000000000006E+000  1.5780000000000003E+000 -2.8199999999999997E-001
       H11  4.0149999999999997E+000  9.6499999999999997E-001 -7.0000000000000007E-001
       H11  2.6180000000000003E+000  1.7849999999999999E+000 -9.6900000000000008E-001
       H11  3.0670000000000002E+000  1.2050000000000001E+000  6.1899999999999999E-001
       CT1  3.9700000000000006E+000  2.8460000000000001E+000  0.0000000000000000E+000
       HP  3.6899999999999999E+000  3.5730000000000000E+000 -7.6200000000000001E-001
       HP  3.6509999999999998E+000  3.2050000000000001E+000  9.7899999999999998E-001
       C1  5.4840000000000000E+000  2.6870000000000003E+000  0.0000000000000000E+000
       O  5.9930000000000012E+000  1.5680000000000001E+000  0.0000000000000000E+000
       N  6.2030000000000012E+000  3.8110000000000004E+000  0.0000000000000000E+000
       H2  5.7450000000000001E+000  4.7030000000000003E+000 -1.2200000000000000E-001
       CT2  7.6420000000000003E+000  3.7999999999999998E+000  1.7100000000000001E-001
       H12  7.8830000000000000E+000  3.5540000000000003E+000  1.2050000000000001E+000
       H12  8.0809999999999995E+000  3.0550000000000006E+000 -4.9200000000000005E-001
       C2  8.2270000000000003E+000  5.1660000000000013E+000 -1.6200000000000003E-001
       O2  7.5410000000000004E+000  6.0170000000000003E+000 -7.2399999999999998E-001
       O2  9.3910000000000018E+000  5.4320000000000004E+000  1.2600000000000000E-001
     &END COORD
     &TOPOLOGY
       CHARGE_BETA T
       COORD_FILE_NAME ./amber/mol.pdb
       COORD_FILE_FORMAT PDB
       NUMBER_OF_ATOMS 17
       CONN_FILE_NAME ./amber/mol.psf
       CONN_FILE_FORMAT UPSF
       MULTIPLE_UNIT_CELL 1 1 1
     &END TOPOLOGY
   &END SUBSYS
 &END FORCE_EVAL
