 # Version information for this restart file 
 # current date 2026-04-22 11:54:42.141
 # current working dir /DATA/lab07/hglee/cp2k_agent/test/level7
 # Program compiled at                                       2026-03-01 16:41:12
 # Program compiled on                                                    master
 # Program compiled for                                                   x86_64
 # Source code revision number                                       git:5e54ba2
 &GLOBAL
   PRINT_LEVEL LOW
   PROJECT_NAME "2gly_B-NEB-r-0"
   OUTPUT_FILE_NAME 2gly_B-NEB-r-0.out
   RUN_TYPE BAND
 &END GLOBAL
 &MOTION
   &BAND
     NPROC_REP 1
     BAND_TYPE B-NEB
     NUMBER_OF_REPLICA 5
     ROTATE_FRAMES T
     K_SPRING  5.0000000000000003E-002
     &CONVERGENCE_CONTROL
       MAX_FORCE  1.0000000000000000E-003
       RMS_FORCE  5.0000000000000001E-004
     &END CONVERGENCE_CONTROL
     &OPTIMIZE_BAND
       OPT_TYPE MD
       &MD
         MAX_STEPS 20
         TIMESTEP  4.9999999999999994E-001
         TEMPERATURE  1.0000000000000001E+002
         &VEL_CONTROL
           ANNEALING  9.4999999999999996E-001
           PROJ_VELOCITY_VERLET T
         &END VEL_CONTROL
       &END MD
     &END OPTIMIZE_BAND
     &REPLICA
       &COORD
           3.3290000000000006E+000  1.5780000000000003E+000 -2.8199999999999997E-001
           4.0149999999999997E+000  9.6499999999999997E-001 -7.0000000000000007E-001
           2.6180000000000003E+000  1.7849999999999999E+000 -9.6900000000000008E-001
           3.0670000000000002E+000  1.2050000000000001E+000  6.1899999999999999E-001
           3.9700000000000006E+000  2.8460000000000001E+000  0.0000000000000000E+000
           3.6899999999999999E+000  3.5730000000000000E+000 -7.6200000000000001E-001
           3.6509999999999998E+000  3.2050000000000001E+000  9.7899999999999998E-001
           5.4840000000000000E+000  2.6870000000000003E+000  0.0000000000000000E+000
           5.9930000000000012E+000  1.5680000000000001E+000  0.0000000000000000E+000
           6.2030000000000012E+000  3.8110000000000004E+000  0.0000000000000000E+000
           5.7450000000000001E+000  4.7030000000000003E+000 -1.2200000000000000E-001
           7.6420000000000003E+000  3.7999999999999998E+000  1.7100000000000001E-001
           7.8830000000000000E+000  3.5540000000000003E+000  1.2050000000000001E+000
           8.0809999999999995E+000  3.0550000000000006E+000 -4.9200000000000005E-001
           8.2270000000000003E+000  5.1660000000000013E+000 -1.6200000000000003E-001
           7.5410000000000004E+000  6.0170000000000003E+000 -7.2399999999999998E-001
           9.3910000000000018E+000  5.4320000000000004E+000  1.2600000000000000E-001
       &END COORD
       &VELOCITY
           0.0000000000000000E+000  0.0000000000000000E+000  0.0000000000000000E+000
           0.0000000000000000E+000  0.0000000000000000E+000  0.0000000000000000E+000
           0.0000000000000000E+000  0.0000000000000000E+000  0.0000000000000000E+000
           0.0000000000000000E+000  0.0000000000000000E+000  0.0000000000000000E+000
           0.0000000000000000E+000  0.0000000000000000E+000  0.0000000000000000E+000
           0.0000000000000000E+000  0.0000000000000000E+000  0.0000000000000000E+000
           0.0000000000000000E+000  0.0000000000000000E+000  0.0000000000000000E+000
           0.0000000000000000E+000  0.0000000000000000E+000  0.0000000000000000E+000
           0.0000000000000000E+000  0.0000000000000000E+000  0.0000000000000000E+000
           0.0000000000000000E+000  0.0000000000000000E+000  0.0000000000000000E+000
           0.0000000000000000E+000  0.0000000000000000E+000  0.0000000000000000E+000
           0.0000000000000000E+000  0.0000000000000000E+000  0.0000000000000000E+000
           0.0000000000000000E+000  0.0000000000000000E+000  0.0000000000000000E+000
           0.0000000000000000E+000  0.0000000000000000E+000  0.0000000000000000E+000
           0.0000000000000000E+000  0.0000000000000000E+000  0.0000000000000000E+000
           0.0000000000000000E+000  0.0000000000000000E+000  0.0000000000000000E+000
           0.0000000000000000E+000  0.0000000000000000E+000  0.0000000000000000E+000
       &END VELOCITY
     &END REPLICA
     &REPLICA
       &COORD
           3.4664096473052228E+000  1.9430460917407995E+000 -8.1474525615159732E-001
           3.5107326688144047E+000  1.7651399309683315E+000 -1.8021913297132679E+000
           3.3695446315031568E+000  2.9376487169836389E+000 -6.5771983583182114E-001
           2.7937839774833431E+000  1.3213185003760866E+000 -3.9794195998238191E-001
           4.7435593437401771E+000  1.5912467437838289E+000 -2.2868918241311567E-001
           4.5809563154093906E+000  9.7395922011167713E-001  6.6012771267857517E-001
           5.3316992477544929E+000  1.0284461906818096E+000 -9.5501986470971645E-001
           5.5051281151110594E+000  2.8511408125014372E+000  1.7018933225739302E-001
           5.1439831867754231E+000  3.5111832179864706E+000  1.1435973941332238E+000
           6.5625486544528835E+000  3.1636522082500087E+000 -5.7609545987842492E-001
           6.4999330198564902E+000  3.1680813380547455E+000 -1.5850224083845239E+000
           7.8403325342226200E+000  3.5082322852576828E+000  1.3791532716089683E-002
           7.8343306488749089E+000  3.2467824147738198E+000  1.0706212812054519E+000
           8.6335030407265290E+000  2.9526657879664850E+000 -4.8999595612242536E-001
           8.1121649472335324E+000  5.0002999737954212E+000 -1.3136779381652333E-001
           7.4826478387935049E+000  5.8130978556544299E+000  5.4631423364436771E-001
           8.9643498269592765E+000  5.3949473887465382E+000 -9.3140625105796371E-001
       &END COORD
       &VELOCITY
           2.0054826507412757E-004 -6.6443269200814906E-005 -5.9371407203077008E-005
           2.1553792395326612E-005  2.6360342933117770E-005  3.0718958655861162E-005
           7.0381564256609619E-005 -9.3093103781027308E-005  1.9674547160271512E-004
          -3.7417104134033866E-005  2.1820622500733677E-004 -7.6127885279821914E-005
           1.8919283335454184E-004 -1.6909316960286864E-005  4.8781740080580294E-005
           1.1157554740853197E-005 -4.2256104679195538E-005  9.8991509533154684E-005
           1.1635234485074063E-004 -1.1055132427656619E-004  3.7775654505523770E-005
           3.7772247456802984E-005  1.7445575570628556E-004 -5.8912243290962647E-005
          -1.3916946162842214E-004 -2.9730624635048778E-005  1.5415685045075879E-005
          -1.0050870860439287E-005  5.6011884449717318E-005 -9.7379195494500000E-005
           2.6457162693273279E-004 -1.5480330114027121E-004 -9.0845972960614964E-005
           2.8001776463290299E-005  5.9468633152907355E-005 -5.5617081711835296E-005
           3.3248316325044626E-005 -8.6186034241629312E-005 -5.9121509833450521E-005
          -7.2101364358000293E-006  1.3982739395635689E-007 -5.4627450104530860E-005
          -6.7808468083468650E-006  7.2524673850157381E-005  1.3487056740249423E-006
          -2.5517951192354226E-004 -1.6546800315303954E-004  2.7706964499545620E-004
          -3.6709431063965094E-006 -2.1513446941724115E-004 -2.7575471263733837E-004
       &END VELOCITY
     &END REPLICA
     &REPLICA
       &COORD
           4.7155776400820546E+000  1.1630434522627666E+000 -2.1051016200568815E-001
           4.0050911329989178E+000  6.0191849648035878E-001  2.3253966364662959E-001
           5.6377995231217044E+000  6.8030020081216258E-001 -1.3178765526544431E-001
           4.4541132389840987E+000  1.4749610338734322E+000 -1.1418988351491040E+000
           4.7975496118240173E+000  2.3999508429784084E+000  5.5660940099197020E-001
           3.8211797286528575E+000  2.6891905492372521E+000  9.0748951063602246E-001
           5.4612373622598103E+000  2.2346475598219238E+000  1.4022723063575377E+000
           5.3116991740485489E+000  3.5465249240534051E+000 -2.9968687000919708E-001
           4.7978254681929755E+000  4.6546814510049757E+000 -2.1964681398889263E-001
           6.3020298753099988E+000  3.2614908062981720E+000 -1.1284736196965965E+000
           6.0889297112946048E+000  3.0251550967890846E+000 -2.0675346569458166E+000
           7.6862177286312807E+000  3.3315200006860031E+000 -7.2203632029076226E-001
           7.9485652861462297E+000  2.4636889174037981E+000 -1.6180682012676784E-001
           8.3062814509309533E+000  3.4008000069101949E+000 -1.5844972667453925E+000
           7.9404887604711316E+000  4.5489964247934012E+000  1.3618321136814932E-001
           8.6644459895443706E+000  4.4383814375872142E+000  1.1406958309689532E+000
           7.4126074699528868E+000  5.6177565894879820E+000 -1.9476535658458749E-001
       &END COORD
       &VELOCITY
           1.6507343849053613E-003 -3.7284532836381028E-004  1.0811257734951183E-003
           1.3601831103524234E-003  1.3411002985367013E-004  1.7835648652488583E-003
           1.6399133174002632E-003 -4.4264386688275335E-004  2.2469054114653976E-004
           2.0164353523082356E-003 -4.4976073824799459E-004  4.9266042883607778E-004
           5.4619512771320272E-004  6.6838936458908703E-004  5.0702838971510791E-005
           3.8704535095352127E-004  1.0356117412209317E-003 -9.2782033754023588E-004
          -3.1420662671147930E-004  7.3207446207193549E-004  5.8915911701929683E-004
          -7.8701904066631078E-005  6.7049911423061549E-004 -9.0249000392267635E-005
          -1.1187257837698887E-003  1.7609323245221248E-004 -1.1042526150229167E-003
          -3.0031257918772356E-004  7.3343561040302343E-004  2.4401650040825395E-004
          -4.1627918585788120E-004  1.5251370184804903E-003  2.2401525575824075E-004
          -5.3982029900709349E-004  7.4894010364805869E-004  2.2419234378266446E-004
          -8.8771698120060507E-005  7.5179540839393356E-004 -3.2100058072463960E-004
          -6.7223140248451124E-004  9.7057474455461608E-004  4.5697363091620074E-004
           4.9274960660757387E-005 -1.0448959638005855E-004  4.0637115061181771E-004
           5.3890820111517849E-004 -1.8909580340964809E-003  2.0327459718519355E-004
          -7.9772339417042131E-004 -4.9835941121773595E-004 -2.9847795742516439E-004
       &END VELOCITY
     &END REPLICA
     &REPLICA
       &COORD
           6.1357518154847552E+000  1.8909845092321633E+000  4.8726976407054268E-001
           6.0087690252230690E+000  2.5623076010720864E+000  1.2282484409339254E+000
           7.1383366731541091E+000  1.8933362188930265E+000  2.9178860956988389E-001
           5.7843017192089077E+000  9.8523853655547600E-001  7.2264785240391671E-001
           5.4699638296640574E+000  2.4377002679409632E+000 -6.8651628525219899E-001
           6.1644877766307200E+000  2.4358034976646481E+000 -1.5265040231548206E+000
           4.6198147597176868E+000  1.8041419273048604E+000 -9.2160482740924565E-001
           4.9814815945863806E+000  3.8655909449219381E+000 -4.3790956511662055E-001
           3.7994965629867727E+000  4.0700092000662220E+000 -6.9594747569689541E-001
           5.7054848142937207E+000  4.8852113866794413E+000  6.0647418612900530E-002
           5.3092649129189597E+000  5.8001003954712811E+000 -5.0554432247118364E-002
           7.0140287522179809E+000  4.9279280829036951E+000  6.8041951894713359E-001
           7.4150125674743652E+000  5.9361727263064559E+000  6.0274017849450789E-001
           6.8937287635778901E+000  4.6978297690782922E+000  1.7357314085917959E+000
           7.9599937124326514E+000  3.9606874342771676E+000  1.8350256705754759E-002
           8.4470708448168654E+000  3.0920607176181538E+000  7.7240998851031806E-001
           7.9127181886721685E+000  3.8637479293611183E+000 -1.2213381018694858E+000
       &END COORD
       &VELOCITY
           2.3029413677589543E-004 -2.0032589812541666E-005 -7.5875596466358754E-005
           1.4025387597026460E-004 -2.7073941202354748E-004  1.1507517674470721E-004
           2.2246657085613536E-004 -7.7292733151295537E-005 -1.0716179976509715E-004
           1.6357899376648368E-004  2.3379702237276488E-005 -6.6446417620645606E-005
           3.4201949011580224E-005  9.0471955590782158E-005  1.2463386789840402E-004
          -1.9607331467572672E-004  1.4791805164917574E-004 -1.5862192004296083E-005
          -4.2915534915067175E-005  8.5048050574078335E-005  2.8927900883172575E-004
           3.8260526866949025E-005 -1.2332242811107766E-005 -2.5534893519161648E-005
           7.6951470131762664E-005  7.0672217253967207E-005 -5.4412022790532855E-005
           2.3672658277182536E-005 -9.9328425802101865E-005 -5.8825445785847682E-005
          -7.1486427514416486E-005 -1.3194191359115019E-004 -7.2748228286976239E-005
           4.1636521755831322E-005  2.6267820692770717E-006 -1.3624265615399658E-004
           1.1034768958557826E-004 -7.3677916539237361E-005 -2.8299505839741941E-004
           1.0594997818190781E-004  1.6494470252504330E-004 -1.0647922297635166E-004
          -4.1512069388278535E-005 -7.0363969579341975E-005  2.8125311113107803E-005
          -2.1120574280142304E-006 -9.3490484454204320E-005  1.5051192623824394E-004
          -2.6264733363134550E-004  1.2959116347483846E-004 -4.1323723350655731E-005
       &END VELOCITY
     &END REPLICA
     &REPLICA
       &COORD
           3.5726330221610283E+000  1.4682197714079945E+000  7.2694525188830069E-004
           2.9860598120001662E+000  2.2271240796611687E+000 -3.1721191685268801E-001
           3.3900498206254004E+000  1.3057343956685179E+000  9.8043908521331746E-001
           3.5030387866591135E+000  7.0651516282393256E-001 -6.5904705518061213E-001
           4.9516624934712397E+000  1.9067028069684473E+000 -6.4383305734979995E-002
           5.4819532850361359E+000  1.5728958337506274E+000  8.2805581320402777E-001
           5.4271053110260743E+000  1.4830664941274021E+000 -9.4872453042031835E-001
           5.0225951427058213E+000  3.4253081939226768E+000 -1.4365018397653254E-001
           4.0234786750638891E+000  4.1079158664046531E+000  7.3271575087532584E-002
           6.2078556916194785E+000  3.9528039812266886E+000 -4.5548768262834399E-001
           6.2806332945764094E+000  4.6196092835499956E+000 -1.2114474099295844E+000
           7.4168769527894742E+000  3.5990678900081488E+000  2.6119939539688719E-001
           7.2321991106724637E+000  3.6571030057647200E+000  1.3344440180110086E+000
           7.7112791089565942E+000  2.5842605871227526E+000 -3.4522784210193514E-003
           8.5465452741686185E+000  4.5529579123906077E+000 -9.9734544364425623E-002
           8.3137444845168567E+000  5.5884105879667105E+000 -7.1961723405644096E-001
           9.7032737707875825E+000  4.2994770396828779E+000  2.2589197832830979E-001
       &END COORD
       &VELOCITY
           0.0000000000000000E+000  0.0000000000000000E+000  0.0000000000000000E+000
           0.0000000000000000E+000  0.0000000000000000E+000  0.0000000000000000E+000
           0.0000000000000000E+000  0.0000000000000000E+000  0.0000000000000000E+000
           0.0000000000000000E+000  0.0000000000000000E+000  0.0000000000000000E+000
           0.0000000000000000E+000  0.0000000000000000E+000  0.0000000000000000E+000
           0.0000000000000000E+000  0.0000000000000000E+000  0.0000000000000000E+000
           0.0000000000000000E+000  0.0000000000000000E+000  0.0000000000000000E+000
           0.0000000000000000E+000  0.0000000000000000E+000  0.0000000000000000E+000
           0.0000000000000000E+000  0.0000000000000000E+000  0.0000000000000000E+000
           0.0000000000000000E+000  0.0000000000000000E+000  0.0000000000000000E+000
           0.0000000000000000E+000  0.0000000000000000E+000  0.0000000000000000E+000
           0.0000000000000000E+000  0.0000000000000000E+000  0.0000000000000000E+000
           0.0000000000000000E+000  0.0000000000000000E+000  0.0000000000000000E+000
           0.0000000000000000E+000  0.0000000000000000E+000  0.0000000000000000E+000
           0.0000000000000000E+000  0.0000000000000000E+000  0.0000000000000000E+000
           0.0000000000000000E+000  0.0000000000000000E+000  0.0000000000000000E+000
           0.0000000000000000E+000  0.0000000000000000E+000  0.0000000000000000E+000
       &END VELOCITY
     &END REPLICA
     &PROGRAM_RUN_INFO SILENT
     &END PROGRAM_RUN_INFO
     &CONVERGENCE_INFO SILENT
     &END CONVERGENCE_INFO
   &END BAND
   &PRINT
     &VELOCITIES OFF
     &END VELOCITIES
   &END PRINT
 &END MOTION
 &FORCE_EVAL
   METHOD FIST
   &MM
     &FORCEFIELD
       PARMTYPE CHM
       PARM_FILE_NAME ./amber/mol.pot
       &SPLINE
         R0_NB  5.2917720859000010E-005
         RCUT_NB  2.0000000000000004E+001
         EMAX_SPLINE  1.0000000000000000E+010
         EMAX_ACCURACY  5.0000000000000000E+002
         EPS_SPLINE  9.9999999999999995E-007
       &END SPLINE
     &END FORCEFIELD
     &POISSON
       &EWALD
         EWALD_TYPE EWALD
         ALPHA  3.5999999999999999E-001
         GMAX 29
       &END EWALD
     &END POISSON
     &PRINT
       &FF_INFO SILENT
         SPLINE_INFO T
       &END FF_INFO
     &END PRINT
   &END MM
   &SUBSYS
     &CELL
       A  3.0000000000000007E+001  0.0000000000000000E+000  0.0000000000000000E+000
       B  0.0000000000000000E+000  3.0000000000000007E+001  0.0000000000000000E+000
       C  0.0000000000000000E+000  0.0000000000000000E+000  3.0000000000000007E+001
       MULTIPLE_UNIT_CELL 1 1 1
     &END CELL
     &COORD
       N3  3.3290000000000006E+000  1.5780000000000003E+000 -2.8199999999999997E-001
       H11  4.0149999999999997E+000  9.6499999999999997E-001 -7.0000000000000007E-001
       H11  2.6180000000000003E+000  1.7849999999999999E+000 -9.6900000000000008E-001
       H11  3.0670000000000002E+000  1.2050000000000001E+000  6.1899999999999999E-001
       CT1  3.9700000000000006E+000  2.8460000000000001E+000  0.0000000000000000E+000
       HP  3.6899999999999999E+000  3.5730000000000000E+000 -7.6200000000000001E-001
       HP  3.6509999999999998E+000  3.2050000000000001E+000  9.7899999999999998E-001
       C1  5.4840000000000000E+000  2.6870000000000003E+000  0.0000000000000000E+000
       O  5.9930000000000012E+000  1.5680000000000001E+000  0.0000000000000000E+000
       N  6.2030000000000012E+000  3.8110000000000004E+000  0.0000000000000000E+000
       H2  5.7450000000000001E+000  4.7030000000000003E+000 -1.2200000000000000E-001
       CT2  7.6420000000000003E+000  3.7999999999999998E+000  1.7100000000000001E-001
       H12  7.8830000000000000E+000  3.5540000000000003E+000  1.2050000000000001E+000
       H12  8.0809999999999995E+000  3.0550000000000006E+000 -4.9200000000000005E-001
       C2  8.2270000000000003E+000  5.1660000000000013E+000 -1.6200000000000003E-001
       O2  7.5410000000000004E+000  6.0170000000000003E+000 -7.2399999999999998E-001
       O2  9.3910000000000018E+000  5.4320000000000004E+000  1.2600000000000000E-001
     &END COORD
     &TOPOLOGY
       CHARGE_BETA T
       COORD_FILE_NAME ./amber/mol.pdb
       COORD_FILE_FORMAT PDB
       NUMBER_OF_ATOMS 17
       CONN_FILE_NAME ./amber/mol.psf
       CONN_FILE_FORMAT UPSF
       MULTIPLE_UNIT_CELL 1 1 1
     &END TOPOLOGY
   &END SUBSYS
 &END FORCE_EVAL
