 # Version information for this restart file 
 # current date 2026-04-22 11:54:42.303
 # current working dir /DATA/lab07/hglee/cp2k_agent/test/level7
 # Program compiled at                                       2026-03-01 16:41:12
 # Program compiled on                                                    master
 # Program compiled for                                                   x86_64
 # Source code revision number                                       git:5e54ba2
 &GLOBAL
   PRINT_LEVEL LOW
   PROJECT_NAME "2gly_B-NEB-r-0"
   OUTPUT_FILE_NAME 2gly_B-NEB-r-0.out
   RUN_TYPE BAND
 &END GLOBAL
 &MOTION
   &BAND
     NPROC_REP 1
     BAND_TYPE B-NEB
     NUMBER_OF_REPLICA 5
     ROTATE_FRAMES T
     K_SPRING  5.0000000000000003E-002
     &CONVERGENCE_CONTROL
       MAX_FORCE  1.0000000000000000E-003
       RMS_FORCE  5.0000000000000001E-004
     &END CONVERGENCE_CONTROL
     &OPTIMIZE_BAND
       OPT_TYPE MD
       &MD
         MAX_STEPS 20
         TIMESTEP  4.9999999999999994E-001
         TEMPERATURE  1.0000000000000001E+002
         &VEL_CONTROL
           ANNEALING  9.4999999999999996E-001
           PROJ_VELOCITY_VERLET T
         &END VEL_CONTROL
       &END MD
     &END OPTIMIZE_BAND
     &REPLICA
       &COORD
           3.3290000000000006E+000  1.5780000000000003E+000 -2.8199999999999997E-001
           4.0149999999999997E+000  9.6499999999999997E-001 -7.0000000000000007E-001
           2.6180000000000003E+000  1.7849999999999999E+000 -9.6900000000000008E-001
           3.0670000000000002E+000  1.2050000000000001E+000  6.1899999999999999E-001
           3.9700000000000006E+000  2.8460000000000001E+000  0.0000000000000000E+000
           3.6899999999999999E+000  3.5730000000000000E+000 -7.6200000000000001E-001
           3.6509999999999998E+000  3.2050000000000001E+000  9.7899999999999998E-001
           5.4840000000000000E+000  2.6870000000000003E+000  0.0000000000000000E+000
           5.9930000000000012E+000  1.5680000000000001E+000  0.0000000000000000E+000
           6.2030000000000012E+000  3.8110000000000004E+000  0.0000000000000000E+000
           5.7450000000000001E+000  4.7030000000000003E+000 -1.2200000000000000E-001
           7.6420000000000003E+000  3.7999999999999998E+000  1.7100000000000001E-001
           7.8830000000000000E+000  3.5540000000000003E+000  1.2050000000000001E+000
           8.0809999999999995E+000  3.0550000000000006E+000 -4.9200000000000005E-001
           8.2270000000000003E+000  5.1660000000000013E+000 -1.6200000000000003E-001
           7.5410000000000004E+000  6.0170000000000003E+000 -7.2399999999999998E-001
           9.3910000000000018E+000  5.4320000000000004E+000  1.2600000000000000E-001
       &END COORD
       &VELOCITY
           0.0000000000000000E+000  0.0000000000000000E+000  0.0000000000000000E+000
           0.0000000000000000E+000  0.0000000000000000E+000  0.0000000000000000E+000
           0.0000000000000000E+000  0.0000000000000000E+000  0.0000000000000000E+000
           0.0000000000000000E+000  0.0000000000000000E+000  0.0000000000000000E+000
           0.0000000000000000E+000  0.0000000000000000E+000  0.0000000000000000E+000
           0.0000000000000000E+000  0.0000000000000000E+000  0.0000000000000000E+000
           0.0000000000000000E+000  0.0000000000000000E+000  0.0000000000000000E+000
           0.0000000000000000E+000  0.0000000000000000E+000  0.0000000000000000E+000
           0.0000000000000000E+000  0.0000000000000000E+000  0.0000000000000000E+000
           0.0000000000000000E+000  0.0000000000000000E+000  0.0000000000000000E+000
           0.0000000000000000E+000  0.0000000000000000E+000  0.0000000000000000E+000
           0.0000000000000000E+000  0.0000000000000000E+000  0.0000000000000000E+000
           0.0000000000000000E+000  0.0000000000000000E+000  0.0000000000000000E+000
           0.0000000000000000E+000  0.0000000000000000E+000  0.0000000000000000E+000
           0.0000000000000000E+000  0.0000000000000000E+000  0.0000000000000000E+000
           0.0000000000000000E+000  0.0000000000000000E+000  0.0000000000000000E+000
           0.0000000000000000E+000  0.0000000000000000E+000  0.0000000000000000E+000
       &END VELOCITY
     &END REPLICA
     &REPLICA
       &COORD
           4.1171006427436252E+000  1.1729901423759623E+000 -6.3867797534604598E-001
           4.6373998790550282E+000  3.4176331908139934E-001 -7.8151450256068167E-001
           4.2800783072124124E+000  1.8325268581503698E+000 -1.3738221244501423E+000
           3.1661591073221063E+000  9.0764457516341923E-001 -5.2101640828216167E-001
           4.5841142196856817E+000  1.8781327207794363E+000  5.2979576129605988E-001
           3.7129285039802773E+000  2.1507233249776321E+000  1.1504516589362179E+000
           5.2523426291820003E+000  1.2179656208579897E+000  1.0962957553924981E+000
           5.3305063927668632E+000  3.1290881481027530E+000  3.4012128725464906E-002
           4.6793810254073094E+000  4.0947043470585269E+000 -4.1759224850422805E-001
           6.6669195187698458E+000  3.0701622308238061E+000  1.8665330908323796E-001
           7.2336228306528572E+000  2.2418452954438806E+000 -4.5249760737739238E-002
           7.3630564156980673E+000  4.1561669955972107E+000  8.5267452543539057E-001
           6.6486085873350644E+000  4.7981549625130135E+000  1.3685897383996746E+000
           8.0621900445384806E+000  3.7542922097291087E+000  1.5893557118218433E+000
           8.1240430510796102E+000  4.9626143729260974E+000 -1.6739766971102116E-001
           7.4748145421517789E+000  5.7126457253639336E+000 -9.0073258062908601E-001
           9.3480852360189797E+000  4.7953694828892361E+000 -2.3331660906255472E-001
       &END COORD
       &VELOCITY
           6.6129480953940555E-004  1.0090804667173512E-004  6.2365482038125584E-004
           5.0930759513821363E-004  5.8068105071930676E-005  9.2386603984150918E-004
           1.2250038577283190E-003  1.5477604895944373E-004  8.6022428389531289E-004
           4.6653017906937326E-004  2.2795355986996398E-004 -2.6224499903339471E-004
           4.2050317069282866E-004  1.8973140444766975E-004  3.1673420771775808E-004
           4.0540078136470459E-004 -3.1464965506392483E-004  1.0936184051231268E-004
           4.1427099829550968E-004  3.4082529704120441E-004 -1.6655007734551679E-005
           1.5625954797769193E-004  1.7583398810763870E-004 -2.6457372766031009E-004
          -1.1783477842459798E-004  1.8734316339620938E-004 -3.1177190534346596E-004
           3.7493087309022202E-004 -3.5557628082095457E-004 -5.6297219067751557E-004
           4.8032461532322121E-004 -7.2368087125055931E-004 -6.0192000643318653E-005
          -4.6693915865345377E-005 -2.6875692772365505E-004  1.8323000655796876E-004
          -3.0899993488870602E-004 -3.4165383753570536E-005  1.0585762627304552E-004
           1.6498136890358170E-004 -9.4030571668465701E-006  4.1402907924984535E-004
          -2.8541339041285714E-004 -3.1965295715345238E-004  1.8932394787038017E-004
          -4.3033948687214472E-004 -2.1608577140702108E-004  5.7714437330309853E-004
          -4.8119415932275036E-004 -6.4871602600092540E-004 -4.3686390713660499E-004
       &END VELOCITY
     &END REPLICA
     &REPLICA
       &COORD
           4.6727327018322162E+000  1.7763261272646083E+000  1.0664840600360446E+000
           3.7018323324914815E+000  1.6769286270497836E+000  1.3565260582207508E+000
           5.3105708652953405E+000  1.7227780580617253E+000  1.8898147589751568E+000
           5.0472532186420684E+000  1.1287160799116227E+000  3.8742431188731291E-001
           4.5812793549778670E+000  3.0320839977668306E+000  2.6973020193049591E-001
           3.7533828186349441E+000  3.0227840459237818E+000 -4.1455083378596214E-001
           4.4722861161997010E+000  3.8234358510949287E+000  9.8706267842856665E-001
           5.5984918996106323E+000  3.2359461866731247E+000 -8.2711315360838966E-001
           5.2882131368727716E+000  3.5422892453978503E+000 -1.9816171793786466E+000
           6.7337944245396386E+000  2.6872439732991271E+000 -5.5269533821127292E-001
           7.0715069118708627E+000  2.0707624378727201E+000 -1.2478819179341043E+000
           7.6682825049023622E+000  3.3246049907554522E+000  3.2864382972886630E-001
           7.4970535716954334E+000  3.1217388853890249E+000  1.3480180759548024E+000
           8.6328613439219009E+000  3.0362745987545066E+000  2.8495973918775588E-002
           7.6951803647674542E+000  4.7776457319958512E+000  2.4038810367541419E-001
           7.7815647655990752E+000  5.3828766189879866E+000  1.3425435482518491E+000
           7.6241109707160621E+000  5.1526030895519508E+000 -9.4607253398630020E-001
       &END COORD
       &VELOCITY
           1.4770167645665729E-003  3.0268391668577532E-003  2.2760600374073653E-003
           1.6786058545329512E-003  3.0572711962577334E-003  2.7524542982477617E-003
           1.4189094882338443E-003  4.1999532619762994E-003  2.0034636871795399E-003
           1.1458229466711504E-003  1.3529688220306137E-003  3.6680164615726682E-003
           8.8655451496775779E-004  1.5371283757872787E-003  4.4222454039054861E-006
           8.9096637247590622E-004 -1.0357273401728412E-003  2.0634990783349372E-005
          -1.1622310678817208E-004  3.0122080788114055E-003 -1.8406830473906624E-003
           1.1413482525653045E-004  4.5673308418770640E-005 -1.0330770280948338E-003
          -1.0275517936318493E-003 -2.7294754604886176E-003 -1.4570023284358033E-003
           3.1904102819900866E-004 -9.7767797376991937E-005 -1.7741144854862478E-003
           1.4338697427935501E-003  3.5047500364987680E-003 -4.4615103105742349E-003
           1.7671731993213434E-004 -3.2566999321526107E-004 -1.1373970247098343E-003
           8.1744860852303255E-004 -1.6377116806841423E-003 -1.0247694778533385E-003
           2.7680670289776294E-004  8.7636680436124455E-004 -2.5670168829649643E-003
          -8.7255231632143635E-004  8.9300224920836407E-005  6.7668424743506223E-004
          -1.0703667056199751E-003 -9.4001845613833266E-004  1.1605071031253107E-003
          -1.4109623847182149E-003  1.7325079027364595E-003  1.3016825459004856E-003
       &END VELOCITY
     &END REPLICA
     &REPLICA
       &COORD
           5.3617503006924281E+000  2.9822106433076234E+000  1.3207851618155411E+000
           5.0563642363140389E+000  3.9097609592774791E+000  1.0736767848844018E+000
           6.2680573377994531E+000  3.1088102635163706E+000  1.7687430390975951E+000
           4.7046536025433010E+000  2.5116531374830835E+000  1.9104952671363955E+000
           5.5847716191242274E+000  2.2495004150367701E+000  7.9829479312442095E-002
           6.5669775922935072E+000  1.7764068081703757E+000  1.0624345170854270E-001
           4.8140493531151520E+000  1.4869825659753191E+000  4.0466042454798895E-003
           5.5105553236708449E+000  3.1348546885170587E+000 -1.1626920961844223E+000
           4.7908193400862986E+000  2.7183383734020694E+000 -2.0647055977957542E+000
           6.1359896975273207E+000  4.3120454544109679E+000 -1.3488541684713720E+000
           6.1561273997009920E+000  4.6441078251595513E+000 -2.2975073607337255E+000
           6.8852362392347457E+000  5.1645028422486936E+000 -4.4854663057648075E-001
           7.5858238156104223E+000  5.7635802597942272E+000 -1.0278103813913106E+000
           6.1837185644189923E+000  5.8354918320059772E+000  4.8284704357020689E-002
           7.6629697464650492E+000  4.3518378713139425E+000  5.5102119282719253E-001
           7.3941588701957981E+000  4.5592893468879376E+000  1.7465038013965768E+000
           8.2372670445121532E+000  3.3290764863850186E+000  1.2533803596610255E-001
       &END COORD
       &VELOCITY
          -3.3179364344224122E-006 -1.1059168750133338E-006 -8.3299193472026374E-007
          -7.0163989550881922E-006 -3.5823972329815497E-006 -8.0897064420883329E-006
          -1.3759258732265613E-005  3.7445746697817987E-006 -1.3501448974285071E-005
          -2.7733842186501314E-007 -1.2176112442515327E-005  9.9563189807689794E-006
          -1.2243325142748267E-006 -2.6277934446657895E-006  2.7557529023710686E-007
          -6.3554876092411853E-008 -5.3067093595668210E-006  1.9268654882055708E-005
           5.5636215544993323E-006 -1.7622611410345223E-005 -1.5366763950411502E-006
           2.1747306470834760E-006  3.6580217292394108E-006  2.4220407772091967E-006
          -2.8430345130709389E-006 -4.3876113906604315E-007 -1.7588580663387803E-007
          -2.2279171073968949E-006 -3.5672006370662421E-007 -6.5911696048342338E-007
          -5.6970737605283452E-007  1.7842660958669537E-005  2.4289237501616177E-007
           8.1187426655089259E-007  4.8331483735585000E-006  1.7883838117343345E-006
           1.8573024492965177E-007  6.8631268942016217E-006 -1.4647051794718134E-005
           6.2279764878550783E-006  1.2251145981437815E-005 -1.7653136044326993E-007
           1.1372874538093368E-005 -1.3240321767048158E-005 -1.7838871332115605E-005
          -4.2027454379869437E-007  2.0620248684892707E-006  6.4782454391191973E-006
          -1.5880003755097953E-006  6.3766504861534489E-006  1.0109103561273880E-005
       &END VELOCITY
     &END REPLICA
     &REPLICA
       &COORD
           3.4352942562665003E+000  1.6626400316720391E+000  5.1402719981514758E-002
           3.3683762720004498E+000  1.6975120900547560E+000 -9.5626534189497714E-001
           2.7258997182237081E+000  2.2641216655954874E+000  4.4453531014396158E-001
           3.4940060936445492E+000  6.9612063689507264E-001  3.3903474127201239E-001
           4.6985514701645474E+000  2.2554357404593461E+000  4.3999435547809118E-001
           4.5487760509504085E+000  2.8906346259670301E+000  1.3135919170869956E+000
           5.4113487471135944E+000  1.4675011719690416E+000  6.8217643109893922E-001
           5.2604334688080385E+000  3.0994341586494811E+000 -6.9553736565212343E-001
           4.5615740028533969E+000  3.3820928390121856E+000 -1.6665891239334261E+000
           6.5266461714891237E+000  3.5014765983903064E+000 -5.7142343325003142E-001
           7.1853376258627586E+000  3.3336213212366403E+000 -1.3193212697670331E+000
           7.0021130252734718E+000  4.1814965931712953E+000  6.1685518628769309E-001
           6.3092753699575912E+000  4.9821903900077507E+000  8.7799389863041732E-001
           7.0649512009337698E+000  3.4711326627603056E+000  1.4402514760842504E+000
           8.3802313720095292E+000  4.7788489542630508E+000  3.7131500813434093E-001
           8.8373766790737207E+000  4.8437620748227745E+000 -7.6772733304898144E-001
           9.0502720950352717E+000  5.2042682898426147E+000  1.3085288676147593E+000
       &END COORD
       &VELOCITY
           0.0000000000000000E+000  0.0000000000000000E+000  0.0000000000000000E+000
           0.0000000000000000E+000  0.0000000000000000E+000  0.0000000000000000E+000
           0.0000000000000000E+000  0.0000000000000000E+000  0.0000000000000000E+000
           0.0000000000000000E+000  0.0000000000000000E+000  0.0000000000000000E+000
           0.0000000000000000E+000  0.0000000000000000E+000  0.0000000000000000E+000
           0.0000000000000000E+000  0.0000000000000000E+000  0.0000000000000000E+000
           0.0000000000000000E+000  0.0000000000000000E+000  0.0000000000000000E+000
           0.0000000000000000E+000  0.0000000000000000E+000  0.0000000000000000E+000
           0.0000000000000000E+000  0.0000000000000000E+000  0.0000000000000000E+000
           0.0000000000000000E+000  0.0000000000000000E+000  0.0000000000000000E+000
           0.0000000000000000E+000  0.0000000000000000E+000  0.0000000000000000E+000
           0.0000000000000000E+000  0.0000000000000000E+000  0.0000000000000000E+000
           0.0000000000000000E+000  0.0000000000000000E+000  0.0000000000000000E+000
           0.0000000000000000E+000  0.0000000000000000E+000  0.0000000000000000E+000
           0.0000000000000000E+000  0.0000000000000000E+000  0.0000000000000000E+000
           0.0000000000000000E+000  0.0000000000000000E+000  0.0000000000000000E+000
           0.0000000000000000E+000  0.0000000000000000E+000  0.0000000000000000E+000
       &END VELOCITY
     &END REPLICA
     &PROGRAM_RUN_INFO SILENT
     &END PROGRAM_RUN_INFO
     &CONVERGENCE_INFO SILENT
     &END CONVERGENCE_INFO
   &END BAND
   &PRINT
     &VELOCITIES OFF
     &END VELOCITIES
   &END PRINT
 &END MOTION
 &FORCE_EVAL
   METHOD FIST
   &MM
     &FORCEFIELD
       PARMTYPE CHM
       PARM_FILE_NAME ./amber/mol.pot
       &SPLINE
         R0_NB  5.2917720859000010E-005
         RCUT_NB  2.0000000000000004E+001
         EMAX_SPLINE  1.0000000000000000E+010
         EMAX_ACCURACY  5.0000000000000000E+002
         EPS_SPLINE  9.9999999999999995E-007
       &END SPLINE
     &END FORCEFIELD
     &POISSON
       &EWALD
         EWALD_TYPE EWALD
         ALPHA  3.5999999999999999E-001
         GMAX 29
       &END EWALD
     &END POISSON
     &PRINT
       &FF_INFO SILENT
         SPLINE_INFO T
       &END FF_INFO
     &END PRINT
   &END MM
   &SUBSYS
     &CELL
       A  3.0000000000000007E+001  0.0000000000000000E+000  0.0000000000000000E+000
       B  0.0000000000000000E+000  3.0000000000000007E+001  0.0000000000000000E+000
       C  0.0000000000000000E+000  0.0000000000000000E+000  3.0000000000000007E+001
       MULTIPLE_UNIT_CELL 1 1 1
     &END CELL
     &COORD
       N3  3.3290000000000006E+000  1.5780000000000003E+000 -2.8199999999999997E-001
       H11  4.0149999999999997E+000  9.6499999999999997E-001 -7.0000000000000007E-001
       H11  2.6180000000000003E+000  1.7849999999999999E+000 -9.6900000000000008E-001
       H11  3.0670000000000002E+000  1.2050000000000001E+000  6.1899999999999999E-001
       CT1  3.9700000000000006E+000  2.8460000000000001E+000  0.0000000000000000E+000
       HP  3.6899999999999999E+000  3.5730000000000000E+000 -7.6200000000000001E-001
       HP  3.6509999999999998E+000  3.2050000000000001E+000  9.7899999999999998E-001
       C1  5.4840000000000000E+000  2.6870000000000003E+000  0.0000000000000000E+000
       O  5.9930000000000012E+000  1.5680000000000001E+000  0.0000000000000000E+000
       N  6.2030000000000012E+000  3.8110000000000004E+000  0.0000000000000000E+000
       H2  5.7450000000000001E+000  4.7030000000000003E+000 -1.2200000000000000E-001
       CT2  7.6420000000000003E+000  3.7999999999999998E+000  1.7100000000000001E-001
       H12  7.8830000000000000E+000  3.5540000000000003E+000  1.2050000000000001E+000
       H12  8.0809999999999995E+000  3.0550000000000006E+000 -4.9200000000000005E-001
       C2  8.2270000000000003E+000  5.1660000000000013E+000 -1.6200000000000003E-001
       O2  7.5410000000000004E+000  6.0170000000000003E+000 -7.2399999999999998E-001
       O2  9.3910000000000018E+000  5.4320000000000004E+000  1.2600000000000000E-001
     &END COORD
     &TOPOLOGY
       CHARGE_BETA T
       COORD_FILE_NAME ./amber/mol.pdb
       COORD_FILE_FORMAT PDB
       NUMBER_OF_ATOMS 17
       CONN_FILE_NAME ./amber/mol.psf
       CONN_FILE_FORMAT UPSF
       MULTIPLE_UNIT_CELL 1 1 1
     &END TOPOLOGY
   &END SUBSYS
 &END FORCE_EVAL
