 # Version information for this restart file 
 # current date 2026-04-22 11:54:42.268
 # current working dir /DATA/lab07/hglee/cp2k_agent/test/level7
 # Program compiled at                                       2026-03-01 16:41:12
 # Program compiled on                                                    master
 # Program compiled for                                                   x86_64
 # Source code revision number                                       git:5e54ba2
 &GLOBAL
   PRINT_LEVEL LOW
   PROJECT_NAME "2gly_B-NEB-r-0"
   OUTPUT_FILE_NAME 2gly_B-NEB-r-0.out
   RUN_TYPE BAND
 &END GLOBAL
 &MOTION
   &BAND
     NPROC_REP 1
     BAND_TYPE B-NEB
     NUMBER_OF_REPLICA 5
     ROTATE_FRAMES T
     K_SPRING  5.0000000000000003E-002
     &CONVERGENCE_CONTROL
       MAX_FORCE  1.0000000000000000E-003
       RMS_FORCE  5.0000000000000001E-004
     &END CONVERGENCE_CONTROL
     &OPTIMIZE_BAND
       OPT_TYPE MD
       &MD
         MAX_STEPS 20
         TIMESTEP  4.9999999999999994E-001
         TEMPERATURE  1.0000000000000001E+002
         &VEL_CONTROL
           ANNEALING  9.4999999999999996E-001
           PROJ_VELOCITY_VERLET T
         &END VEL_CONTROL
       &END MD
     &END OPTIMIZE_BAND
     &REPLICA
       &COORD
           3.3290000000000006E+000  1.5780000000000003E+000 -2.8199999999999997E-001
           4.0149999999999997E+000  9.6499999999999997E-001 -7.0000000000000007E-001
           2.6180000000000003E+000  1.7849999999999999E+000 -9.6900000000000008E-001
           3.0670000000000002E+000  1.2050000000000001E+000  6.1899999999999999E-001
           3.9700000000000006E+000  2.8460000000000001E+000  0.0000000000000000E+000
           3.6899999999999999E+000  3.5730000000000000E+000 -7.6200000000000001E-001
           3.6509999999999998E+000  3.2050000000000001E+000  9.7899999999999998E-001
           5.4840000000000000E+000  2.6870000000000003E+000  0.0000000000000000E+000
           5.9930000000000012E+000  1.5680000000000001E+000  0.0000000000000000E+000
           6.2030000000000012E+000  3.8110000000000004E+000  0.0000000000000000E+000
           5.7450000000000001E+000  4.7030000000000003E+000 -1.2200000000000000E-001
           7.6420000000000003E+000  3.7999999999999998E+000  1.7100000000000001E-001
           7.8830000000000000E+000  3.5540000000000003E+000  1.2050000000000001E+000
           8.0809999999999995E+000  3.0550000000000006E+000 -4.9200000000000005E-001
           8.2270000000000003E+000  5.1660000000000013E+000 -1.6200000000000003E-001
           7.5410000000000004E+000  6.0170000000000003E+000 -7.2399999999999998E-001
           9.3910000000000018E+000  5.4320000000000004E+000  1.2600000000000000E-001
       &END COORD
       &VELOCITY
           0.0000000000000000E+000  0.0000000000000000E+000  0.0000000000000000E+000
           0.0000000000000000E+000  0.0000000000000000E+000  0.0000000000000000E+000
           0.0000000000000000E+000  0.0000000000000000E+000  0.0000000000000000E+000
           0.0000000000000000E+000  0.0000000000000000E+000  0.0000000000000000E+000
           0.0000000000000000E+000  0.0000000000000000E+000  0.0000000000000000E+000
           0.0000000000000000E+000  0.0000000000000000E+000  0.0000000000000000E+000
           0.0000000000000000E+000  0.0000000000000000E+000  0.0000000000000000E+000
           0.0000000000000000E+000  0.0000000000000000E+000  0.0000000000000000E+000
           0.0000000000000000E+000  0.0000000000000000E+000  0.0000000000000000E+000
           0.0000000000000000E+000  0.0000000000000000E+000  0.0000000000000000E+000
           0.0000000000000000E+000  0.0000000000000000E+000  0.0000000000000000E+000
           0.0000000000000000E+000  0.0000000000000000E+000  0.0000000000000000E+000
           0.0000000000000000E+000  0.0000000000000000E+000  0.0000000000000000E+000
           0.0000000000000000E+000  0.0000000000000000E+000  0.0000000000000000E+000
           0.0000000000000000E+000  0.0000000000000000E+000  0.0000000000000000E+000
           0.0000000000000000E+000  0.0000000000000000E+000  0.0000000000000000E+000
           0.0000000000000000E+000  0.0000000000000000E+000  0.0000000000000000E+000
       &END VELOCITY
     &END REPLICA
     &REPLICA
       &COORD
           3.7936384726812951E+000  1.5694438559971222E+000 -9.0309223988901000E-001
           4.1224551957725071E+000  9.9228299338490278E-001 -1.6441343524797027E+000
           3.7198444751109343E+000  2.5261955450705074E+000 -1.2008578155389158E+000
           2.9487987073259547E+000  1.1684773943040563E+000 -5.5829669194141107E-001
           4.7616457367850771E+000  1.6183026158757596E+000  1.7179343025179039E-001
           4.2403942296867578E+000  1.4422375344310256E+000  1.1302678212395443E+000
           5.5134321972138132E+000  8.3454903600008767E-001  1.1118238559195297E-002
           5.4134490145583802E+000  3.0074667036811435E+000  1.5787643010190403E-001
           4.7668618762133983E+000  3.9871861298506177E+000  5.6296024186219373E-001
           6.6860249952733382E+000  3.0321983641957795E+000 -2.6200101647945712E-001
           7.0055359015367289E+000  2.5318771169404504E+000 -1.0925092108090710E+000
           7.7104699658054718E+000  3.6962669500091470E+000  5.1886152802753616E-001
           7.3348566756587514E+000  3.9003246976850372E+000  1.5192079176498898E+000
           8.5819464870313062E+000  3.0457450245198778E+000  6.0217577541402689E-001
           8.1129351965754370E+000  4.9920455265662147E+000 -1.5174832520048437E-001
           7.3232730723675310E+000  5.9426636359116305E+000 -9.5997965704558041E-002
           9.2008324807837507E+000  5.0190181883924039E+000 -7.4553612132193703E-001
       &END COORD
       &VELOCITY
           6.5832157427429957E-004 -9.5523200763388458E-005  2.8890714961726002E-004
           3.9876793170840532E-004 -3.6807172651390446E-005  2.8783034450624172E-004
           9.2659974833574283E-004 -6.5056825030573612E-005  5.8840045211643250E-004
           3.3003777921293028E-004  1.7543176947394917E-004 -3.3311113889526208E-004
           4.6811390116401964E-004 -9.8510567610359854E-005  3.2016637741531166E-004
           2.7306912281203894E-004 -1.6718439907539623E-004  2.2506551094107091E-004
           4.8902715372476616E-004 -6.7853945487347651E-005  2.4795237278332197E-004
           4.6215967471268846E-005  2.4845572872936853E-004 -1.9818574298393534E-004
          -3.1040630401784567E-004  3.6026810969563204E-004 -3.5170149918074112E-004
           1.2966368360270986E-004  1.1425631267351270E-005 -5.1948390985760218E-004
           5.0042738702393667E-004 -6.7928492237663899E-004 -1.6871937054190687E-004
           2.1517102784891727E-005 -1.6918959509996010E-004 -1.5786132166271366E-004
          -3.6044119847228579E-005 -2.4365352853196646E-004 -1.3570476204607056E-004
           1.3323234887287379E-004  1.2945136440402727E-005 -1.1039228069280275E-004
          -1.6954193876687231E-004 -2.4387526618086726E-004  8.1116626054801398E-005
          -2.1661557606246989E-004 -4.3843548542668793E-004  7.2583481630937542E-004
          -5.3282698660052981E-004 -3.9599425152746725E-004 -4.7342794594055370E-004
       &END VELOCITY
     &END REPLICA
     &REPLICA
       &COORD
           4.9509223679123116E+000  1.2513964603030669E+000  4.7421010908447858E-001
           4.1267794734742420E+000  9.2934929390008314E-001  9.8318733125790736E-001
           5.8285905265122731E+000  8.4829633899455326E-001  8.8034891670763538E-001
           4.9962446601222350E+000  1.1062463301219616E+000 -5.2794147890939813E-001
           4.7464166250914621E+000  2.7222898835048248E+000  5.3670224905380426E-001
           3.7367496839888235E+000  3.0194385895261866E+000  3.2201527245880418E-001
           5.0169281659044653E+000  3.0004412132666274E+000  1.5386410553181522E+000
           5.3677957028969807E+000  3.5349854466850288E+000 -5.7295253498532883E-001
           4.7484870418246468E+000  4.3978259303172953E+000 -1.1965953074486080E+000
           6.4808279204261989E+000  3.0355298946107987E+000 -9.9358559952417880E-001
           6.4867619686790494E+000  2.7240386488023831E+000 -1.9264175290151568E+000
           7.7153025682559226E+000  3.2767038070504273E+000 -3.1550821668929613E-001
           7.8778395185720420E+000  2.6270066502012588E+000  4.9083920511968937E-001
           8.4930181062885470E+000  3.2015110159883240E+000 -1.0101171797122643E+000
           7.8430963843024415E+000  4.6134142424684423E+000  2.3885819016193161E-001
           8.3607917346058738E+000  4.6678059984007367E+000  1.3877583510232432E+000
           7.3976119473595245E+000  5.4693823570261726E+000 -5.5234071009211683E-001
       &END COORD
       &VELOCITY
           2.6189813946878248E-003  1.3453286683971874E-003  2.7618882375937829E-003
           2.8142059043453089E-003  1.5590081992644506E-003  3.1901337141107323E-003
           2.5215102792446086E-003  1.8568798387684439E-003  2.8160331831500159E-003
           2.7624857632171005E-003 -5.3632205235712709E-004  3.0321311847937016E-003
           1.0516347409992375E-003  1.3590400471125577E-003  3.3822750603660425E-004
           9.4820738729547158E-004 -2.7817081199616893E-004 -1.4291436566877490E-003
          -5.3628459237953674E-004  3.0902246583496061E-003  1.5313081110566171E-004
          -2.6604106755727245E-004  9.9602349477341729E-004 -6.4961349887087858E-004
          -1.8216805211119648E-003 -1.4158184156671267E-003 -2.5368303272070157E-003
          -5.5975798381360559E-004  8.0265916907234559E-004 -1.0542078934701264E-003
          -2.9838941756888965E-004  4.5684920777391809E-003 -2.3097213844249080E-003
          -4.6857880684846698E-004  3.9293949430406553E-004 -8.1331955727278029E-004
           1.0938170216588696E-004 -3.5930517700182853E-004 -1.3331252692523774E-003
          -7.3757913672837171E-004  2.0933299379804946E-003 -1.4360571312704937E-003
          -5.0713894344538298E-004 -3.3749899550410221E-004  9.0267509050166847E-004
          -2.7195245820805294E-004 -1.7217466729764449E-003  8.4106783089210244E-004
          -6.4097506254415693E-004  4.9004513722473270E-004  1.9425369015003365E-003
       &END VELOCITY
     &END REPLICA
     &REPLICA
       &COORD
           5.9036611713293503E+000  2.2458621098525864E+000  1.0460809368838537E+000
           5.6203846273593152E+000  3.1303865682016152E+000  1.4357209853401307E+000
           6.9209467826266664E+000  2.2190363381454845E+000  1.1316619850142224E+000
           5.4552018624583054E+000  1.4817421749601065E+000  1.5065688677367843E+000
           5.5771111861586578E+000  2.2722025527811343E+000 -3.7507860424142192E-001
           6.4456557544880821E+000  1.9686147501317395E+000 -9.5871148208897505E-001
           4.7609759599231678E+000  1.5757151876421469E+000 -5.3748815581838494E-001
           5.1379074748395439E+000  3.6477289706936924E+000 -8.6350007200592227E-001
           4.0960284864348750E+000  3.6737525377395568E+000 -1.5116552915930919E+000
           5.7654026900604807E+000  4.8123750090239428E+000 -6.3809645628046674E-001
           5.4655541637671092E+000  5.5773359447818800E+000 -1.2141430778194509E+000
           6.8720953075590101E+000  5.1657000300458646E+000  2.2798250340983967E-001
           7.3663601655327033E+000  6.0507087729069156E+000 -1.6491711825892999E-001
           6.4713226852236572E+000  5.4020345452373872E+000  1.2102014245326540E+000
           7.8777712687604131E+000  4.0535475144154463E+000  3.0328564276644471E-001
           8.0934409447671722E+000  3.5909442507053537E+000  1.4441884551322781E+000
           8.1431080928200963E+000  3.4724268667028113E+000 -7.6402651873713423E-001
       &END COORD
       &VELOCITY
           4.6053864008377479E-005 -2.1084141636333611E-004  8.2884745748827316E-005
           2.1522934793315499E-004 -2.3778754831194646E-004  2.8473985049303602E-004
          -1.0242496758993520E-005 -4.3668973408510239E-006 -1.4643288348938018E-004
           4.5721119565958007E-004 -5.4479442889300632E-004  5.9097501198601739E-005
          -9.0699113872571386E-005 -5.1309708969128399E-005  1.0518752892402000E-004
          -1.4536445625138025E-004 -2.5550964583863676E-004  5.1572294746297980E-005
          -1.8406232040170999E-004 -1.6524993667294924E-005  1.2806242771415527E-004
          -4.5021400761200770E-005  7.9461667716035624E-005  1.0760391473438755E-004
           2.0030652143028394E-005 -3.6322401756122635E-005 -2.3840627815587720E-005
          -4.8221749325335984E-005  2.0395338461760569E-004  6.9473232094916261E-005
           1.2446263168845949E-005  2.7164140871279764E-004  1.4636249342289676E-005
           1.5147282195851537E-004  1.9366124283409525E-004 -1.5342722588823710E-004
           2.1066500813196628E-004  2.6272416036973561E-005 -5.7375392631554899E-004
           3.1143811837523684E-004  5.0315535203659305E-004 -3.8926650000489393E-005
           1.1235913667056445E-004  4.6374565981942699E-006 -1.5039246471526730E-004
           1.3762019720847668E-004  1.1306766295060927E-004 -2.4468973809729306E-004
           2.1405603681351601E-004 -4.2755300501148299E-004  1.1291451100975045E-004
       &END VELOCITY
     &END REPLICA
     &REPLICA
       &COORD
           3.5192645818631489E+000  1.5459524954647945E+000  9.2894893456606981E-002
           3.0897354819911240E+000  2.0785634052279836E+000 -6.5069058997106266E-001
           3.0681546844494965E+000  1.7836430317962721E+000  9.6443208107048073E-001
           3.5833331688483945E+000  5.8002679467957652E-001 -1.9558692005040970E-001
           4.8890652424117054E+000  1.9948377112921787E+000  2.3564367058744512E-001
           5.1355641887812444E+000  2.0795092478764206E+000  1.2944883241278824E+000
           5.5587707904554957E+000  1.2764092979693809E+000 -2.3650894652894330E-001
           5.0741674321512935E+000  3.3532547985012036E+000 -4.2610945296556035E-001
           4.0986291668550470E+000  4.0099838436641910E+000 -7.8426312694099720E-001
           6.3303136369653705E+000  3.7731838111968741E+000 -5.8764377262436485E-001
           6.6470233297568733E+000  4.0804496775608454E+000 -1.4968652296190352E+000
           7.2751245487975833E+000  3.8054570398375898E+000  5.1089743260914444E-001
           6.8105197938534427E+000  4.2821882586958697E+000  1.3747248266232477E+000
           7.5658189872011770E+000  2.7878731295415937E+000  7.6890272129123827E-001
           8.5179903063965625E+000  4.5918576296510070E+000  1.1950399765011932E-001
           8.5274870037202248E+000  5.2741421666021981E+000 -9.0275361341337401E-001
           9.5248609252428302E+000  4.5547832381335365E+000  8.2174544216741774E-001
       &END COORD
       &VELOCITY
           0.0000000000000000E+000  0.0000000000000000E+000  0.0000000000000000E+000
           0.0000000000000000E+000  0.0000000000000000E+000  0.0000000000000000E+000
           0.0000000000000000E+000  0.0000000000000000E+000  0.0000000000000000E+000
           0.0000000000000000E+000  0.0000000000000000E+000  0.0000000000000000E+000
           0.0000000000000000E+000  0.0000000000000000E+000  0.0000000000000000E+000
           0.0000000000000000E+000  0.0000000000000000E+000  0.0000000000000000E+000
           0.0000000000000000E+000  0.0000000000000000E+000  0.0000000000000000E+000
           0.0000000000000000E+000  0.0000000000000000E+000  0.0000000000000000E+000
           0.0000000000000000E+000  0.0000000000000000E+000  0.0000000000000000E+000
           0.0000000000000000E+000  0.0000000000000000E+000  0.0000000000000000E+000
           0.0000000000000000E+000  0.0000000000000000E+000  0.0000000000000000E+000
           0.0000000000000000E+000  0.0000000000000000E+000  0.0000000000000000E+000
           0.0000000000000000E+000  0.0000000000000000E+000  0.0000000000000000E+000
           0.0000000000000000E+000  0.0000000000000000E+000  0.0000000000000000E+000
           0.0000000000000000E+000  0.0000000000000000E+000  0.0000000000000000E+000
           0.0000000000000000E+000  0.0000000000000000E+000  0.0000000000000000E+000
           0.0000000000000000E+000  0.0000000000000000E+000  0.0000000000000000E+000
       &END VELOCITY
     &END REPLICA
     &PROGRAM_RUN_INFO SILENT
     &END PROGRAM_RUN_INFO
     &CONVERGENCE_INFO SILENT
     &END CONVERGENCE_INFO
   &END BAND
   &PRINT
     &VELOCITIES OFF
     &END VELOCITIES
   &END PRINT
 &END MOTION
 &FORCE_EVAL
   METHOD FIST
   &MM
     &FORCEFIELD
       PARMTYPE CHM
       PARM_FILE_NAME ./amber/mol.pot
       &SPLINE
         R0_NB  5.2917720859000010E-005
         RCUT_NB  2.0000000000000004E+001
         EMAX_SPLINE  1.0000000000000000E+010
         EMAX_ACCURACY  5.0000000000000000E+002
         EPS_SPLINE  9.9999999999999995E-007
       &END SPLINE
     &END FORCEFIELD
     &POISSON
       &EWALD
         EWALD_TYPE EWALD
         ALPHA  3.5999999999999999E-001
         GMAX 29
       &END EWALD
     &END POISSON
     &PRINT
       &FF_INFO SILENT
         SPLINE_INFO T
       &END FF_INFO
     &END PRINT
   &END MM
   &SUBSYS
     &CELL
       A  3.0000000000000007E+001  0.0000000000000000E+000  0.0000000000000000E+000
       B  0.0000000000000000E+000  3.0000000000000007E+001  0.0000000000000000E+000
       C  0.0000000000000000E+000  0.0000000000000000E+000  3.0000000000000007E+001
       MULTIPLE_UNIT_CELL 1 1 1
     &END CELL
     &COORD
       N3  3.3290000000000006E+000  1.5780000000000003E+000 -2.8199999999999997E-001
       H11  4.0149999999999997E+000  9.6499999999999997E-001 -7.0000000000000007E-001
       H11  2.6180000000000003E+000  1.7849999999999999E+000 -9.6900000000000008E-001
       H11  3.0670000000000002E+000  1.2050000000000001E+000  6.1899999999999999E-001
       CT1  3.9700000000000006E+000  2.8460000000000001E+000  0.0000000000000000E+000
       HP  3.6899999999999999E+000  3.5730000000000000E+000 -7.6200000000000001E-001
       HP  3.6509999999999998E+000  3.2050000000000001E+000  9.7899999999999998E-001
       C1  5.4840000000000000E+000  2.6870000000000003E+000  0.0000000000000000E+000
       O  5.9930000000000012E+000  1.5680000000000001E+000  0.0000000000000000E+000
       N  6.2030000000000012E+000  3.8110000000000004E+000  0.0000000000000000E+000
       H2  5.7450000000000001E+000  4.7030000000000003E+000 -1.2200000000000000E-001
       CT2  7.6420000000000003E+000  3.7999999999999998E+000  1.7100000000000001E-001
       H12  7.8830000000000000E+000  3.5540000000000003E+000  1.2050000000000001E+000
       H12  8.0809999999999995E+000  3.0550000000000006E+000 -4.9200000000000005E-001
       C2  8.2270000000000003E+000  5.1660000000000013E+000 -1.6200000000000003E-001
       O2  7.5410000000000004E+000  6.0170000000000003E+000 -7.2399999999999998E-001
       O2  9.3910000000000018E+000  5.4320000000000004E+000  1.2600000000000000E-001
     &END COORD
     &TOPOLOGY
       CHARGE_BETA T
       COORD_FILE_NAME ./amber/mol.pdb
       COORD_FILE_FORMAT PDB
       NUMBER_OF_ATOMS 17
       CONN_FILE_NAME ./amber/mol.psf
       CONN_FILE_FORMAT UPSF
       MULTIPLE_UNIT_CELL 1 1 1
     &END TOPOLOGY
   &END SUBSYS
 &END FORCE_EVAL
