 # Version information for this restart file 
 # current date 2026-04-22 11:54:42.236
 # current working dir /DATA/lab07/hglee/cp2k_agent/test/level7
 # Program compiled at                                       2026-03-01 16:41:12
 # Program compiled on                                                    master
 # Program compiled for                                                   x86_64
 # Source code revision number                                       git:5e54ba2
 &GLOBAL
   PRINT_LEVEL LOW
   PROJECT_NAME "2gly_B-NEB-r-0"
   OUTPUT_FILE_NAME 2gly_B-NEB-r-0.out
   RUN_TYPE BAND
 &END GLOBAL
 &MOTION
   &BAND
     NPROC_REP 1
     BAND_TYPE B-NEB
     NUMBER_OF_REPLICA 5
     ROTATE_FRAMES T
     K_SPRING  5.0000000000000003E-002
     &CONVERGENCE_CONTROL
       MAX_FORCE  1.0000000000000000E-003
       RMS_FORCE  5.0000000000000001E-004
     &END CONVERGENCE_CONTROL
     &OPTIMIZE_BAND
       OPT_TYPE MD
       &MD
         MAX_STEPS 20
         TIMESTEP  4.9999999999999994E-001
         TEMPERATURE  1.0000000000000001E+002
         &VEL_CONTROL
           ANNEALING  9.4999999999999996E-001
           PROJ_VELOCITY_VERLET T
         &END VEL_CONTROL
       &END MD
     &END OPTIMIZE_BAND
     &REPLICA
       &COORD
           3.3290000000000006E+000  1.5780000000000003E+000 -2.8199999999999997E-001
           4.0149999999999997E+000  9.6499999999999997E-001 -7.0000000000000007E-001
           2.6180000000000003E+000  1.7849999999999999E+000 -9.6900000000000008E-001
           3.0670000000000002E+000  1.2050000000000001E+000  6.1899999999999999E-001
           3.9700000000000006E+000  2.8460000000000001E+000  0.0000000000000000E+000
           3.6899999999999999E+000  3.5730000000000000E+000 -7.6200000000000001E-001
           3.6509999999999998E+000  3.2050000000000001E+000  9.7899999999999998E-001
           5.4840000000000000E+000  2.6870000000000003E+000  0.0000000000000000E+000
           5.9930000000000012E+000  1.5680000000000001E+000  0.0000000000000000E+000
           6.2030000000000012E+000  3.8110000000000004E+000  0.0000000000000000E+000
           5.7450000000000001E+000  4.7030000000000003E+000 -1.2200000000000000E-001
           7.6420000000000003E+000  3.7999999999999998E+000  1.7100000000000001E-001
           7.8830000000000000E+000  3.5540000000000003E+000  1.2050000000000001E+000
           8.0809999999999995E+000  3.0550000000000006E+000 -4.9200000000000005E-001
           8.2270000000000003E+000  5.1660000000000013E+000 -1.6200000000000003E-001
           7.5410000000000004E+000  6.0170000000000003E+000 -7.2399999999999998E-001
           9.3910000000000018E+000  5.4320000000000004E+000  1.2600000000000000E-001
       &END COORD
       &VELOCITY
           0.0000000000000000E+000  0.0000000000000000E+000  0.0000000000000000E+000
           0.0000000000000000E+000  0.0000000000000000E+000  0.0000000000000000E+000
           0.0000000000000000E+000  0.0000000000000000E+000  0.0000000000000000E+000
           0.0000000000000000E+000  0.0000000000000000E+000  0.0000000000000000E+000
           0.0000000000000000E+000  0.0000000000000000E+000  0.0000000000000000E+000
           0.0000000000000000E+000  0.0000000000000000E+000  0.0000000000000000E+000
           0.0000000000000000E+000  0.0000000000000000E+000  0.0000000000000000E+000
           0.0000000000000000E+000  0.0000000000000000E+000  0.0000000000000000E+000
           0.0000000000000000E+000  0.0000000000000000E+000  0.0000000000000000E+000
           0.0000000000000000E+000  0.0000000000000000E+000  0.0000000000000000E+000
           0.0000000000000000E+000  0.0000000000000000E+000  0.0000000000000000E+000
           0.0000000000000000E+000  0.0000000000000000E+000  0.0000000000000000E+000
           0.0000000000000000E+000  0.0000000000000000E+000  0.0000000000000000E+000
           0.0000000000000000E+000  0.0000000000000000E+000  0.0000000000000000E+000
           0.0000000000000000E+000  0.0000000000000000E+000  0.0000000000000000E+000
           0.0000000000000000E+000  0.0000000000000000E+000  0.0000000000000000E+000
           0.0000000000000000E+000  0.0000000000000000E+000  0.0000000000000000E+000
       &END VELOCITY
     &END REPLICA
     &REPLICA
       &COORD
           3.6287926117403040E+000  1.7645745272838138E+000 -8.9724589655117504E-001
           3.8165639472991844E+000  1.3802604223733614E+000 -1.7990304354618958E+000
           3.5177477794549685E+000  2.7643603578126599E+000 -9.5688142325613479E-001
           2.8599449913282760E+000  1.2661057544513941E+000 -4.9693305397650106E-001
           4.7762733699063258E+000  1.5807809991701876E+000 -3.1744859158232941E-002
           4.4348362523723273E+000  1.1753958653235268E+000  9.3527241286246199E-001
           5.4677615867384493E+000  8.7260607930603351E-001 -5.0127810584951438E-001
           5.4602032982936537E+000  2.9344650342042105E+000  1.7536154671750748E-001
           4.9288192407131124E+000  3.7773652715307122E+000  9.0698943350789818E-001
           6.6374914721167837E+000  3.0852810550804737E+000 -4.3723520496065726E-001
           6.7795190453408916E+000  2.8235100256818133E+000 -1.4079457603468617E+000
           7.8000359825775689E+000  3.5744768969470075E+000  2.7642212003714728E-001
           7.6116883140354661E+000  3.5375755007193668E+000  1.3480560596003508E+000
           8.6556583838722307E+000  2.9355899933783638E+000  5.0396645925064688E-002
           8.1118472351604911E+000  5.0017935698181040E+000 -1.4072891917552008E-001
           7.3677329058203904E+000  5.9082485294068183E+000  2.5614464816497706E-001
           9.0891502092290786E+000  5.1932113798975905E+000 -8.7951702654582475E-001
       &END COORD
       &VELOCITY
           5.2749377864781547E-004 -9.6970245099464489E-005  1.1863948714021272E-004
           2.3038284470207657E-004  2.8670451094367949E-006  9.3954198784206993E-005
           6.0588504261344263E-004 -1.2901984417713617E-004  4.3555659213500084E-004
           1.7746217864768435E-004  2.2757666354904761E-004 -2.9124421358533775E-004
           4.1075772409774957E-004 -1.3203043163068342E-004  2.0591666314279485E-004
           1.7044237774660286E-004 -9.3044439724295698E-005  2.1281787663476168E-004
           4.1710647164398118E-004 -1.8496252231093826E-004  2.0143214988980844E-004
           2.0633228453088431E-005  2.4141090961978808E-004 -1.5395989892450957E-004
          -3.2191049964345168E-004  2.7414622869851478E-004 -1.7604952763588974E-004
           8.0973264348464815E-005  1.3078474144200030E-004 -3.5655439728900744E-004
           4.7433740027961563E-004 -5.3569511762349871E-004 -2.1235466761479365E-004
           2.7331323434100232E-005 -3.7117634190988770E-005 -1.7345642199194104E-004
           3.2335575918284946E-005 -2.2116400333792514E-004 -1.8767046968986748E-004
           5.2265696956395850E-005  5.0909393716986283E-005 -1.7274168012271861E-004
          -1.1471614512014159E-004 -1.1769963164364415E-004  3.8671549346535793E-005
          -2.2287333579976100E-004 -4.5883844300317439E-004  5.9010421226534271E-004
          -4.0145883764805795E-004 -3.5490884189832013E-004 -4.1740727527782930E-004
       &END VELOCITY
     &END REPLICA
     &REPLICA
       &COORD
           4.9155760537964470E+000  1.1546898752140926E+000  1.3304666794610198E-001
           4.1515480339759891E+000  7.2035460084857461E-001  6.5376705792021694E-001
           5.8322927741684447E+000  6.8607322465574372E-001  3.3851259576172821E-001
           4.8144920680835668E+000  1.2513955905865244E+000 -8.7494504544038620E-001
           4.7977970499464728E+000  2.5664970656950343E+000  5.6052115520292778E-001
           3.7805068245781261E+000  2.9097833037955914E+000  6.0743839388800458E-001
           5.2507697527564980E+000  2.6069246401661355E+000  1.5371651375933510E+000
           5.3234977747556194E+000  3.5791296956033154E+000 -4.2923999233204801E-001
           4.6956347839729373E+000  4.5922694803533330E+000 -7.2498334568987244E-001
           6.3763096870551594E+000  3.1851522610824783E+000 -1.0720024929252383E+000
           6.2561857912494281E+000  2.9451030735392592E+000 -2.0164653749844756E+000
           7.6906897044788352E+000  3.3234301524401459E+000 -5.3031408168064764E-001
           7.9322723634682921E+000  2.5495864459695716E+000  1.3367885871058405E-001
           8.3804675355001645E+000  3.3348071982098588E+000 -1.3151656778713634E+000
           7.8975459947976399E+000  4.5704396498492148E+000  2.0226896579754733E-001
           8.5499230379442519E+000  4.4648760959212668E+000  1.2752150447948247E+000
           7.3664450376300543E+000  5.5410192761880968E+000 -3.7481030219918948E-001
       &END COORD
       &VELOCITY
           2.9060838793024610E-003  4.5922519665792942E-004  2.3663530912560941E-003
           2.9610560265834781E-003  9.2638631119813461E-004  2.9693353276944038E-003
           2.7695976187557341E-003  5.2605941232591001E-004  2.0778041995144752E-003
           3.1669392914003692E-003 -9.7690880881151979E-004  2.1810660544961994E-003
           1.0715159149230523E-003  1.1375690700700751E-003  3.0930463716139785E-004
           7.9920514766593416E-004  6.0383181666754900E-004 -1.7620439675808644E-003
          -4.8182386235123153E-004  2.4080816849105795E-003  7.9007773493339076E-004
          -3.3377106401809173E-004  1.2157042716280202E-003 -2.6267694071537484E-004
          -2.1231169983558173E-003 -4.5848438861593560E-004 -2.5070817146899235E-003
          -6.6807937466898944E-004  1.0839669287212460E-003 -3.4599181749788788E-004
          -6.7449395249949277E-004  3.8911307354214091E-003 -1.0078135269023061E-003
          -6.7656787015757261E-004  6.9741726188869062E-004 -3.1788387914914273E-004
          -1.0866137878932358E-004  3.7400240848617551E-004 -8.9873034119604400E-004
          -9.4415897861203685E-004  2.1447871568127165E-003 -4.7923825994046254E-004
          -3.2436906302897226E-004 -4.8802864412430830E-004  8.0357552368978701E-004
           1.3081541771045799E-004 -2.1629256358834353E-003  4.2386858891503977E-004
          -5.0657648150819596E-004 -2.2498436247108194E-004  1.3758485163278523E-003
       &END VELOCITY
     &END REPLICA
     &REPLICA
       &COORD
           6.0529539243548385E+000  2.0296101568639422E+000  7.7719641624012781E-001
           5.8392257272577490E+000  2.8100876169093447E+000  1.3767195326248669E+000
           7.0727949665716947E+000  1.9978324852423546E+000  7.0881185471956543E-001
           5.6573868563207217E+000  1.1842796307261128E+000  1.1288531796050478E+000
           5.5279037016567472E+000  2.3486930798076435E+000 -5.4431792101023813E-001
           6.3019247576921815E+000  2.1943010738989339E+000 -1.2937656734469047E+000
           4.6911679031522757E+000  1.6862115293182851E+000 -7.3721555656603732E-001
           5.0413801511674787E+000  3.7875664621141203E+000 -6.5344103911112905E-001
           3.9127587735854727E+000  3.9357018368915466E+000 -1.1107708738392075E+000
           5.7138801502432663E+000  4.8847503060181134E+000 -2.7672098070693635E-001
           5.3437027979248537E+000  5.7503571616238931E+000 -6.1985196263165376E-001
           6.9376388982570996E+000  5.0610687891957724E+000  4.7761121134059098E-001
           7.3773664998502930E+000  6.0235522605224956E+000  2.3215836567394599E-001
           6.6859815837861465E+000  5.0633422459252166E+000  1.5328935420596845E+000
           7.9295202592377558E+000  3.9814260938652719E+000  1.6007884739953354E-001
           8.3026779575056171E+000  3.2848598440813834E+000  1.1309902333619215E+000
           8.0237018038871799E+000  3.6566611662007489E+000 -1.0381650754305956E+000
       &END COORD
       &VELOCITY
           3.0412209764785637E-004 -2.1201952581165396E-004  2.2864408086561749E-005
           4.1709099247963163E-004 -4.0873565634924359E-004  3.3673028826608606E-004
           2.5925200695311865E-004 -1.1538139002432887E-004 -1.6026443171391147E-004
           4.9357839892200214E-004 -3.8077067326412918E-004 -1.2532512170930732E-004
          -3.1792657131702429E-005  1.8477026363567467E-005  1.6826723274194707E-004
          -2.9012043973664943E-004  2.5885355217031005E-005 -1.5065257084687030E-004
          -2.1264210346459323E-004  1.5332606147093849E-004  4.5742941640928479E-004
          -9.0337263298074372E-006  4.0219073399144349E-005  1.0935519176046762E-004
           8.1323351369061499E-005  3.7963917550897114E-005 -1.5617294182275040E-004
          -1.7821951080277299E-005  8.0179078544812723E-005  3.5674535485921695E-005
          -5.5792424572161307E-005  4.2729069531249340E-005 -9.1860524574319995E-005
           1.2072842573521175E-004  1.2267766753859392E-004 -1.6575627240799780E-004
           2.9124434040632538E-004 -7.8581836244721824E-005 -6.7349798341954654E-004
           2.6560074176532706E-004  4.4323936875713074E-004 -8.8919763333258209E-005
          -2.5790844988044588E-005 -3.7843882968615477E-005 -7.1704668196800520E-005
           7.7065602727622350E-005  5.2835071296658991E-005 -1.0786143687120614E-004
          -8.1048166785774116E-005 -1.9873891956632923E-004  3.5793847129202585E-006
       &END VELOCITY
     &END REPLICA
     &REPLICA
       &COORD
           3.5476218985262085E+000  1.5045807163688578E+000  5.7044882518778400E-002
           3.0209886576977891E+000  2.1784832910108736E+000 -4.8110170489530452E-001
           3.2345301926344598E+000  1.5397111564427537E+000  1.0163745630155365E+000
           3.5530299812864148E+000  6.2553247840110260E-001 -4.4053319976242566E-001
           4.9303224563787857E+000  1.9350761781115735E+000  8.9322192399010999E-002
           5.3324136028446469E+000  1.7921010261861479E+000  1.0927980595057745E+000
           5.5112442762799443E+000  1.3477824214867946E+000 -6.2144421268234973E-001
           5.0365479752461297E+000  3.4076963003074070E+000 -2.8159978705933036E-001
           4.0291158995076923E+000  4.1097707452010228E+000 -3.4002997275704716E-001
           6.2612872734928562E+000  3.8740357002051451E+000 -5.3235507699981199E-001
           6.4444486527794673E+000  4.3766764234735867E+000 -1.3897961609525256E+000
           7.3589465702632246E+000  3.6832125279552952E+000  3.9459291784460498E-001
           7.0351203611651245E+000  3.9530928004762949E+000  1.4003907229750134E+000
           7.6686756835868044E+000  2.6389966292914764E+000  3.7949214509934132E-001
           8.5422208079194828E+000  4.5568964491360422E+000  3.6089228150910984E-003
           8.4107292627764423E+000  5.4448547484370966E+000 -8.3594633579405764E-001
           9.6413887992585359E+000  4.3854634117703890E+000  5.2394193206518525E-001
       &END COORD
       &VELOCITY
           0.0000000000000000E+000  0.0000000000000000E+000  0.0000000000000000E+000
           0.0000000000000000E+000  0.0000000000000000E+000  0.0000000000000000E+000
           0.0000000000000000E+000  0.0000000000000000E+000  0.0000000000000000E+000
           0.0000000000000000E+000  0.0000000000000000E+000  0.0000000000000000E+000
           0.0000000000000000E+000  0.0000000000000000E+000  0.0000000000000000E+000
           0.0000000000000000E+000  0.0000000000000000E+000  0.0000000000000000E+000
           0.0000000000000000E+000  0.0000000000000000E+000  0.0000000000000000E+000
           0.0000000000000000E+000  0.0000000000000000E+000  0.0000000000000000E+000
           0.0000000000000000E+000  0.0000000000000000E+000  0.0000000000000000E+000
           0.0000000000000000E+000  0.0000000000000000E+000  0.0000000000000000E+000
           0.0000000000000000E+000  0.0000000000000000E+000  0.0000000000000000E+000
           0.0000000000000000E+000  0.0000000000000000E+000  0.0000000000000000E+000
           0.0000000000000000E+000  0.0000000000000000E+000  0.0000000000000000E+000
           0.0000000000000000E+000  0.0000000000000000E+000  0.0000000000000000E+000
           0.0000000000000000E+000  0.0000000000000000E+000  0.0000000000000000E+000
           0.0000000000000000E+000  0.0000000000000000E+000  0.0000000000000000E+000
           0.0000000000000000E+000  0.0000000000000000E+000  0.0000000000000000E+000
       &END VELOCITY
     &END REPLICA
     &PROGRAM_RUN_INFO SILENT
     &END PROGRAM_RUN_INFO
     &CONVERGENCE_INFO SILENT
     &END CONVERGENCE_INFO
   &END BAND
   &PRINT
     &VELOCITIES OFF
     &END VELOCITIES
   &END PRINT
 &END MOTION
 &FORCE_EVAL
   METHOD FIST
   &MM
     &FORCEFIELD
       PARMTYPE CHM
       PARM_FILE_NAME ./amber/mol.pot
       &SPLINE
         R0_NB  5.2917720859000010E-005
         RCUT_NB  2.0000000000000004E+001
         EMAX_SPLINE  1.0000000000000000E+010
         EMAX_ACCURACY  5.0000000000000000E+002
         EPS_SPLINE  9.9999999999999995E-007
       &END SPLINE
     &END FORCEFIELD
     &POISSON
       &EWALD
         EWALD_TYPE EWALD
         ALPHA  3.5999999999999999E-001
         GMAX 29
       &END EWALD
     &END POISSON
     &PRINT
       &FF_INFO SILENT
         SPLINE_INFO T
       &END FF_INFO
     &END PRINT
   &END MM
   &SUBSYS
     &CELL
       A  3.0000000000000007E+001  0.0000000000000000E+000  0.0000000000000000E+000
       B  0.0000000000000000E+000  3.0000000000000007E+001  0.0000000000000000E+000
       C  0.0000000000000000E+000  0.0000000000000000E+000  3.0000000000000007E+001
       MULTIPLE_UNIT_CELL 1 1 1
     &END CELL
     &COORD
       N3  3.3290000000000006E+000  1.5780000000000003E+000 -2.8199999999999997E-001
       H11  4.0149999999999997E+000  9.6499999999999997E-001 -7.0000000000000007E-001
       H11  2.6180000000000003E+000  1.7849999999999999E+000 -9.6900000000000008E-001
       H11  3.0670000000000002E+000  1.2050000000000001E+000  6.1899999999999999E-001
       CT1  3.9700000000000006E+000  2.8460000000000001E+000  0.0000000000000000E+000
       HP  3.6899999999999999E+000  3.5730000000000000E+000 -7.6200000000000001E-001
       HP  3.6509999999999998E+000  3.2050000000000001E+000  9.7899999999999998E-001
       C1  5.4840000000000000E+000  2.6870000000000003E+000  0.0000000000000000E+000
       O  5.9930000000000012E+000  1.5680000000000001E+000  0.0000000000000000E+000
       N  6.2030000000000012E+000  3.8110000000000004E+000  0.0000000000000000E+000
       H2  5.7450000000000001E+000  4.7030000000000003E+000 -1.2200000000000000E-001
       CT2  7.6420000000000003E+000  3.7999999999999998E+000  1.7100000000000001E-001
       H12  7.8830000000000000E+000  3.5540000000000003E+000  1.2050000000000001E+000
       H12  8.0809999999999995E+000  3.0550000000000006E+000 -4.9200000000000005E-001
       C2  8.2270000000000003E+000  5.1660000000000013E+000 -1.6200000000000003E-001
       O2  7.5410000000000004E+000  6.0170000000000003E+000 -7.2399999999999998E-001
       O2  9.3910000000000018E+000  5.4320000000000004E+000  1.2600000000000000E-001
     &END COORD
     &TOPOLOGY
       CHARGE_BETA T
       COORD_FILE_NAME ./amber/mol.pdb
       COORD_FILE_FORMAT PDB
       NUMBER_OF_ATOMS 17
       CONN_FILE_NAME ./amber/mol.psf
       CONN_FILE_FORMAT UPSF
       MULTIPLE_UNIT_CELL 1 1 1
     &END TOPOLOGY
   &END SUBSYS
 &END FORCE_EVAL
