 # Version information for this restart file 
 # current date 2026-04-22 11:54:42.201
 # current working dir /DATA/lab07/hglee/cp2k_agent/test/level7
 # Program compiled at                                       2026-03-01 16:41:12
 # Program compiled on                                                    master
 # Program compiled for                                                   x86_64
 # Source code revision number                                       git:5e54ba2
 &GLOBAL
   PRINT_LEVEL LOW
   PROJECT_NAME "2gly_B-NEB-r-0"
   OUTPUT_FILE_NAME 2gly_B-NEB-r-0.out
   RUN_TYPE BAND
 &END GLOBAL
 &MOTION
   &BAND
     NPROC_REP 1
     BAND_TYPE B-NEB
     NUMBER_OF_REPLICA 5
     ROTATE_FRAMES T
     K_SPRING  5.0000000000000003E-002
     &CONVERGENCE_CONTROL
       MAX_FORCE  1.0000000000000000E-003
       RMS_FORCE  5.0000000000000001E-004
     &END CONVERGENCE_CONTROL
     &OPTIMIZE_BAND
       OPT_TYPE MD
       &MD
         MAX_STEPS 20
         TIMESTEP  4.9999999999999994E-001
         TEMPERATURE  1.0000000000000001E+002
         &VEL_CONTROL
           ANNEALING  9.4999999999999996E-001
           PROJ_VELOCITY_VERLET T
         &END VEL_CONTROL
       &END MD
     &END OPTIMIZE_BAND
     &REPLICA
       &COORD
           3.3290000000000006E+000  1.5780000000000003E+000 -2.8199999999999997E-001
           4.0149999999999997E+000  9.6499999999999997E-001 -7.0000000000000007E-001
           2.6180000000000003E+000  1.7849999999999999E+000 -9.6900000000000008E-001
           3.0670000000000002E+000  1.2050000000000001E+000  6.1899999999999999E-001
           3.9700000000000006E+000  2.8460000000000001E+000  0.0000000000000000E+000
           3.6899999999999999E+000  3.5730000000000000E+000 -7.6200000000000001E-001
           3.6509999999999998E+000  3.2050000000000001E+000  9.7899999999999998E-001
           5.4840000000000000E+000  2.6870000000000003E+000  0.0000000000000000E+000
           5.9930000000000012E+000  1.5680000000000001E+000  0.0000000000000000E+000
           6.2030000000000012E+000  3.8110000000000004E+000  0.0000000000000000E+000
           5.7450000000000001E+000  4.7030000000000003E+000 -1.2200000000000000E-001
           7.6420000000000003E+000  3.7999999999999998E+000  1.7100000000000001E-001
           7.8830000000000000E+000  3.5540000000000003E+000  1.2050000000000001E+000
           8.0809999999999995E+000  3.0550000000000006E+000 -4.9200000000000005E-001
           8.2270000000000003E+000  5.1660000000000013E+000 -1.6200000000000003E-001
           7.5410000000000004E+000  6.0170000000000003E+000 -7.2399999999999998E-001
           9.3910000000000018E+000  5.4320000000000004E+000  1.2600000000000000E-001
       &END COORD
       &VELOCITY
           0.0000000000000000E+000  0.0000000000000000E+000  0.0000000000000000E+000
           0.0000000000000000E+000  0.0000000000000000E+000  0.0000000000000000E+000
           0.0000000000000000E+000  0.0000000000000000E+000  0.0000000000000000E+000
           0.0000000000000000E+000  0.0000000000000000E+000  0.0000000000000000E+000
           0.0000000000000000E+000  0.0000000000000000E+000  0.0000000000000000E+000
           0.0000000000000000E+000  0.0000000000000000E+000  0.0000000000000000E+000
           0.0000000000000000E+000  0.0000000000000000E+000  0.0000000000000000E+000
           0.0000000000000000E+000  0.0000000000000000E+000  0.0000000000000000E+000
           0.0000000000000000E+000  0.0000000000000000E+000  0.0000000000000000E+000
           0.0000000000000000E+000  0.0000000000000000E+000  0.0000000000000000E+000
           0.0000000000000000E+000  0.0000000000000000E+000  0.0000000000000000E+000
           0.0000000000000000E+000  0.0000000000000000E+000  0.0000000000000000E+000
           0.0000000000000000E+000  0.0000000000000000E+000  0.0000000000000000E+000
           0.0000000000000000E+000  0.0000000000000000E+000  0.0000000000000000E+000
           0.0000000000000000E+000  0.0000000000000000E+000  0.0000000000000000E+000
           0.0000000000000000E+000  0.0000000000000000E+000  0.0000000000000000E+000
           0.0000000000000000E+000  0.0000000000000000E+000  0.0000000000000000E+000
       &END VELOCITY
     &END REPLICA
     &REPLICA
       &COORD
           3.5430943794200309E+000  1.8600009932482864E+000 -8.6446611521565520E-001
           3.6554674717317339E+000  1.5827761116275731E+000 -1.8185834259847242E+000
           3.4316689740381059E+000  2.8622396573333844E+000 -8.0641389683805054E-001
           2.8210658145892866E+000  1.3019594491857085E+000 -4.4859141310440276E-001
           4.7649310881725055E+000  1.5812059424998706E+000 -1.3633825280411177E-001
           4.5164650997693681E+000  1.0617023427499848E+000  8.0061134071220263E-001
           5.4064312483383317E+000  9.4011377801883755E-001 -7.4702854407028452E-001
           5.4842653193247122E+000  2.8928379910241446E+000  1.7560971405152179E-001
           5.0354245163089848E+000  3.6425071789595047E+000  1.0447246460681514E+000
           6.6008738773245534E+000  3.1231147924821050E+000 -5.1366860669409453E-001
           6.6401884073468640E+000  2.9988961111588299E+000 -1.5174401162450823E+000
           7.8270936998436422E+000  3.5337885880044770E+000  1.4165987197320443E-001
           7.7348503300774913E+000  3.3766372463302985E+000  1.2156506499508597E+000
           8.6551647234396363E+000  2.9290298810871813E+000 -2.3367450216878718E-001
           8.1123315255579076E+000  5.0036757840867958E+000 -1.3542263574329674E-001
           7.4178025561956398E+000  5.8657657860779659E+000  4.1613415266911608E-001
           9.0271489541209284E+000  5.2951515147979009E+000 -9.1771156972081314E-001
       &END COORD
       &VELOCITY
           4.0257174874198649E-004 -7.6982348836493805E-005  3.7114455888492617E-005
           1.1434297313566570E-004  1.9817550646392053E-005  2.6914597522948536E-005
           3.4132066730085757E-004 -1.4683853794352790E-004  3.3793977079167885E-004
           5.9642880746385318E-005  2.6275940622326357E-004 -2.1261083149018312E-004
           3.3741224421806644E-004 -9.4501249203434969E-005  1.3079322588373270E-004
           8.8448910626278001E-005 -5.8506483150513797E-005  1.7030031756401449E-004
           2.9537866967887101E-004 -1.8365581597557811E-004  1.2748854235963280E-004
           1.0599369740743334E-005  2.2577975793049610E-004 -1.2612256207827173E-004
          -2.7198953794123977E-004  1.3095765615891151E-004 -4.7034506661755449E-005
           7.3186157102482743E-005  1.4070047998750569E-004 -2.3317296350604296E-004
           4.1607092564278973E-004 -3.8097610458805587E-004 -1.9405321353131830E-004
           2.9787298483616097E-005  3.8473334238293912E-005 -1.2954544997224908E-004
           4.6351051447840139E-005 -1.6719757176859084E-004 -1.5174413969784256E-004
           1.2630564526939819E-005  3.6013307407666362E-005 -1.2941543668613684E-004
          -6.5532553759928858E-005  5.9870696956743057E-006  1.8887852968459150E-005
          -2.8680499114019562E-004 -3.7679006858709347E-004  4.7108057665892604E-004
          -2.1706704188304202E-004 -3.4505476465024868E-004 -3.8966353810840153E-004
       &END VELOCITY
     &END REPLICA
     &REPLICA
       &COORD
           4.8320366125380119E+000  1.1438112811793602E+000 -4.1217506077991913E-002
           4.0905762414611697E+000  6.5056316457231000E-001  4.5462252369024292E-001
           5.7553961908062465E+000  6.6257063157004936E-001  9.0657236060150623E-002
           4.6602069368913144E+000  1.3552928038284771E+000 -1.0252619907269351E+000
           4.7994544338299159E+000  2.4886237435653991E+000  5.5674516961871312E-001
           3.7962236961978548E+000  2.8239362104693444E+000  7.4896633200210272E-001
           5.3504509183427134E+000  2.4185974209051637E+000  1.4844823445361148E+000
           5.3165257576571614E+000  3.5705256176240403E+000 -3.6618897789555455E-001
           4.7330157913137940E+000  4.6411555021740218E+000 -4.8065483480858029E-001
           6.3410278609428792E+000  3.2297463320034914E+000 -1.0961360522496135E+000
           6.1737641706659998E+000  2.9901081168777424E+000 -2.0353490820178002E+000
           7.6864979681555630E+000  3.3344693746488128E+000 -6.1651705327407291E-001
           7.9429762762143454E+000  2.5144751477769227E+000 -8.4324645384947633E-003
           8.3428778157118497E+000  3.3689031114173722E+000 -1.4348150060420495E+000
           7.9217531648612143E+000  4.5608744863561448E+000  1.7649790515696190E-001
           8.6139423825261421E+000  4.4295960626187512E+000  1.2165017305987094E+000
           7.3760747320963072E+000  5.5755304389870277E+000 -2.9743198289299860E-001
       &END COORD
       &VELOCITY
           2.6683591736993834E-003 -3.2568118689412923E-005  1.8694178445537665E-003
           2.5374141668051834E-003  5.7995611173758562E-004  2.6401890668322665E-003
           2.5101234668389524E-003 -1.4454028539498103E-004  1.2176865235983673E-003
           3.0126396075292141E-003 -9.1867605042541872E-004  1.5328578208831066E-003
           9.5520008087629743E-004  9.1776839859292886E-004  1.9340569344429565E-004
           6.5294087247512228E-004  1.0964786044537665E-003 -1.5966424556119816E-003
          -4.3047658196405947E-004  1.6972129569322448E-003  8.6339522915730108E-004
          -2.7963067651323622E-004  1.1070089833602427E-003 -9.6212017175077759E-005
          -1.9471980658533196E-003  5.7595397779923312E-005 -2.1062829998759209E-003
          -5.5395294803044649E-004  1.1229280801303020E-003  5.0820069192353024E-005
          -6.5882265181433221E-004  2.9292718352775271E-003 -3.0611549340502211E-004
          -7.0788294897956221E-004  8.9075482350445018E-004  5.0065850621531731E-005
          -1.3869406606443468E-004  7.5768988600669128E-004 -5.7150729130850311E-004
          -9.2861935207952146E-004  1.7939790824705363E-003  1.0420196967291353E-004
          -1.7304176244037863E-004 -4.0630813564420851E-004  6.6650195460664688E-004
           3.8094302946720533E-004 -2.3643108980688069E-003  2.2210347092713415E-004
          -6.6669745610493675E-004 -6.0342901083175536E-004  5.7932399683094610E-004
       &END VELOCITY
     &END REPLICA
     &REPLICA
       &COORD
           6.0984823952467089E+000  1.9537799635061177E+000  6.3422396297250294E-001
           5.9242046385727747E+000  2.6792955193172383E+000  1.3106098769222869E+000
           7.1121434250445104E+000  1.9328433993692955E+000  5.0188418970545146E-001
           5.7229364121487531E+000  1.0780231167203134E+000  9.3005529676888521E-001
           5.5001995805442281E+000  2.3928077873833731E+000 -6.1871541901274829E-001
           6.2336940866128812E+000  2.3133404075580093E+000 -1.4185245206179509E+000
           4.6567119231217449E+000  1.7446442825979835E+000 -8.3264437209349185E-001
           5.0093568970175557E+000  3.8338914667677519E+000 -5.5014820544305199E-001
           3.8512986705682906E+000  4.0187592361686368E+000 -9.0918473848594683E-001
           5.7068079888380732E+000  4.8921274614690358E+000 -1.0886180671209013E-001
           5.3197835339638830E+000  5.7879384692469413E+000 -3.3668508415156823E-001
           6.9744989917111146E+000  4.9970196411694268E+000  5.8325734027647769E-001
           7.3938941928024278E+000  5.9860682400148901E+000  4.2100702486360092E-001
           6.7880449436754793E+000  4.8839185831702530E+000  1.6461865154776434E+000
           7.9472375106360760E+000  3.9633608247183583E+000  9.1978961593612144E-002
           8.3787998933762857E+000  3.1737069851526223E+000  9.6275376655833667E-001
           7.9677750966226544E+000  3.7575918376969866E+000 -1.1364558845251298E+000
       &END COORD
       &VELOCITY
           3.6755922433656961E-004 -1.3725457107310250E-004 -3.2893671093219758E-005
           3.3699730725980529E-004 -4.1436774250278854E-004  2.6736434505899936E-004
           3.4304262622232226E-004 -1.2945244159323448E-004 -1.6654079127358725E-004
           3.6947719489369141E-004 -1.4916585802839870E-004 -1.4385407049203100E-004
           7.0933877135942033E-006  5.5320966904980085E-005  1.7002188657491270E-004
          -3.0212454830964332E-004  1.7770253441169975E-004 -1.2854159356057631E-004
          -1.3596747307764777E-004  1.6985121353646948E-004  4.9645348424907866E-004
           2.7295307503847796E-005  5.6052809665142160E-006  4.9754675685012226E-005
           9.7105614931684430E-005  9.1648150874972266E-005 -1.4708378387043915E-004
           2.7721151188325227E-005 -3.0510121992336871E-005 -2.9714280934384527E-005
          -9.3466656473429479E-005 -1.1779927465387668E-004 -1.1258277273011591E-004
           1.0467430910330138E-004  3.5746668337462602E-005 -1.7628566039499095E-004
           2.4133731324937292E-004 -1.0842191112127277E-004 -5.6609621084111885E-004
           2.0621729520964757E-004  3.2731635930586265E-004 -1.3821158730713395E-004
          -7.2971211929169448E-005 -9.7415764182174898E-005  4.9741018082384687E-006
           8.2793629232613708E-006 -2.2551756822009967E-005  4.1102135435449430E-005
          -2.8305237460649464E-004  3.2669626842657616E-005 -6.5155628671305608E-006
       &END VELOCITY
     &END REPLICA
     &REPLICA
       &COORD
           3.5583834993424546E+000  1.4882154081161563E+000  2.5898361551878579E-002
           2.9993038024242158E+000  2.2113479244971264E+000 -4.0491279922084294E-001
           3.3093523274187016E+000  1.4242417183593175E+000  1.0023536049855857E+000
           3.5284790677775240E+000  6.6443641672536269E-001 -5.5791059548453359E-001
           4.9414108618106152E+000  1.9186016195777533E+000  1.0666039072900580E-002
           5.4084116197986685E+000  1.6757569427048713E+000  9.6566329297109332E-001
           5.4725255096044645E+000  1.4090238684774887E+000 -7.9296369313118520E-001
           5.0270928097080780E+000  3.4217440140356969E+000 -2.1449733669620363E-001
           4.0199853197876445E+000  4.1221650413948563E+000 -1.3457932759119362E-001
           6.2339355659141278E+000  3.9159913199101579E+000 -4.9660930458984615E-001
           6.3615577269814079E+000  4.5040511284618523E+000 -1.3085817459760432E+000
           7.3898040514235133E+000  3.6360671111940399E+000  3.3170976532276703E-001
           7.1337891576904822E+000  3.8008468365135082E+000  1.3789117593575890E+000
           7.6949153907429908E+000  2.6000396238250181E+000  1.8993136063959237E-001
           8.5471717957050615E+000  4.5496558952272430E+000 -4.5365078952718664E-002
           8.3630943648439064E+000  5.5179725092069862E+000 -7.7959354103952772E-001
           9.6777796652149419E+000  4.3304347592914851E+000  3.8121895609941803E-001
       &END COORD
       &VELOCITY
           0.0000000000000000E+000  0.0000000000000000E+000  0.0000000000000000E+000
           0.0000000000000000E+000  0.0000000000000000E+000  0.0000000000000000E+000
           0.0000000000000000E+000  0.0000000000000000E+000  0.0000000000000000E+000
           0.0000000000000000E+000  0.0000000000000000E+000  0.0000000000000000E+000
           0.0000000000000000E+000  0.0000000000000000E+000  0.0000000000000000E+000
           0.0000000000000000E+000  0.0000000000000000E+000  0.0000000000000000E+000
           0.0000000000000000E+000  0.0000000000000000E+000  0.0000000000000000E+000
           0.0000000000000000E+000  0.0000000000000000E+000  0.0000000000000000E+000
           0.0000000000000000E+000  0.0000000000000000E+000  0.0000000000000000E+000
           0.0000000000000000E+000  0.0000000000000000E+000  0.0000000000000000E+000
           0.0000000000000000E+000  0.0000000000000000E+000  0.0000000000000000E+000
           0.0000000000000000E+000  0.0000000000000000E+000  0.0000000000000000E+000
           0.0000000000000000E+000  0.0000000000000000E+000  0.0000000000000000E+000
           0.0000000000000000E+000  0.0000000000000000E+000  0.0000000000000000E+000
           0.0000000000000000E+000  0.0000000000000000E+000  0.0000000000000000E+000
           0.0000000000000000E+000  0.0000000000000000E+000  0.0000000000000000E+000
           0.0000000000000000E+000  0.0000000000000000E+000  0.0000000000000000E+000
       &END VELOCITY
     &END REPLICA
     &PROGRAM_RUN_INFO SILENT
     &END PROGRAM_RUN_INFO
     &CONVERGENCE_INFO SILENT
     &END CONVERGENCE_INFO
   &END BAND
   &PRINT
     &VELOCITIES OFF
     &END VELOCITIES
   &END PRINT
 &END MOTION
 &FORCE_EVAL
   METHOD FIST
   &MM
     &FORCEFIELD
       PARMTYPE CHM
       PARM_FILE_NAME ./amber/mol.pot
       &SPLINE
         R0_NB  5.2917720859000010E-005
         RCUT_NB  2.0000000000000004E+001
         EMAX_SPLINE  1.0000000000000000E+010
         EMAX_ACCURACY  5.0000000000000000E+002
         EPS_SPLINE  9.9999999999999995E-007
       &END SPLINE
     &END FORCEFIELD
     &POISSON
       &EWALD
         EWALD_TYPE EWALD
         ALPHA  3.5999999999999999E-001
         GMAX 29
       &END EWALD
     &END POISSON
     &PRINT
       &FF_INFO SILENT
         SPLINE_INFO T
       &END FF_INFO
     &END PRINT
   &END MM
   &SUBSYS
     &CELL
       A  3.0000000000000007E+001  0.0000000000000000E+000  0.0000000000000000E+000
       B  0.0000000000000000E+000  3.0000000000000007E+001  0.0000000000000000E+000
       C  0.0000000000000000E+000  0.0000000000000000E+000  3.0000000000000007E+001
       MULTIPLE_UNIT_CELL 1 1 1
     &END CELL
     &COORD
       N3  3.3290000000000006E+000  1.5780000000000003E+000 -2.8199999999999997E-001
       H11  4.0149999999999997E+000  9.6499999999999997E-001 -7.0000000000000007E-001
       H11  2.6180000000000003E+000  1.7849999999999999E+000 -9.6900000000000008E-001
       H11  3.0670000000000002E+000  1.2050000000000001E+000  6.1899999999999999E-001
       CT1  3.9700000000000006E+000  2.8460000000000001E+000  0.0000000000000000E+000
       HP  3.6899999999999999E+000  3.5730000000000000E+000 -7.6200000000000001E-001
       HP  3.6509999999999998E+000  3.2050000000000001E+000  9.7899999999999998E-001
       C1  5.4840000000000000E+000  2.6870000000000003E+000  0.0000000000000000E+000
       O  5.9930000000000012E+000  1.5680000000000001E+000  0.0000000000000000E+000
       N  6.2030000000000012E+000  3.8110000000000004E+000  0.0000000000000000E+000
       H2  5.7450000000000001E+000  4.7030000000000003E+000 -1.2200000000000000E-001
       CT2  7.6420000000000003E+000  3.7999999999999998E+000  1.7100000000000001E-001
       H12  7.8830000000000000E+000  3.5540000000000003E+000  1.2050000000000001E+000
       H12  8.0809999999999995E+000  3.0550000000000006E+000 -4.9200000000000005E-001
       C2  8.2270000000000003E+000  5.1660000000000013E+000 -1.6200000000000003E-001
       O2  7.5410000000000004E+000  6.0170000000000003E+000 -7.2399999999999998E-001
       O2  9.3910000000000018E+000  5.4320000000000004E+000  1.2600000000000000E-001
     &END COORD
     &TOPOLOGY
       CHARGE_BETA T
       COORD_FILE_NAME ./amber/mol.pdb
       COORD_FILE_FORMAT PDB
       NUMBER_OF_ATOMS 17
       CONN_FILE_NAME ./amber/mol.psf
       CONN_FILE_FORMAT UPSF
       MULTIPLE_UNIT_CELL 1 1 1
     &END TOPOLOGY
   &END SUBSYS
 &END FORCE_EVAL
