 # Version information for this restart file 
 # current date 2026-04-22 11:54:42.256
 # current working dir /DATA/lab07/hglee/cp2k_agent/test/level7
 # Program compiled at                                       2026-03-01 16:41:12
 # Program compiled on                                                    master
 # Program compiled for                                                   x86_64
 # Source code revision number                                       git:5e54ba2
 &GLOBAL
   PRINT_LEVEL LOW
   PROJECT_NAME "2gly_B-NEB-r-0"
   OUTPUT_FILE_NAME 2gly_B-NEB-r-0.out
   RUN_TYPE BAND
 &END GLOBAL
 &MOTION
   &BAND
     NPROC_REP 1
     BAND_TYPE B-NEB
     NUMBER_OF_REPLICA 5
     ROTATE_FRAMES T
     K_SPRING  5.0000000000000003E-002
     &CONVERGENCE_CONTROL
       MAX_FORCE  1.0000000000000000E-003
       RMS_FORCE  5.0000000000000001E-004
     &END CONVERGENCE_CONTROL
     &OPTIMIZE_BAND
       OPT_TYPE MD
       &MD
         MAX_STEPS 20
         TIMESTEP  4.9999999999999994E-001
         TEMPERATURE  1.0000000000000001E+002
         &VEL_CONTROL
           ANNEALING  9.4999999999999996E-001
           PROJ_VELOCITY_VERLET T
         &END VEL_CONTROL
       &END MD
     &END OPTIMIZE_BAND
     &REPLICA
       &COORD
           3.3290000000000006E+000  1.5780000000000003E+000 -2.8199999999999997E-001
           4.0149999999999997E+000  9.6499999999999997E-001 -7.0000000000000007E-001
           2.6180000000000003E+000  1.7849999999999999E+000 -9.6900000000000008E-001
           3.0670000000000002E+000  1.2050000000000001E+000  6.1899999999999999E-001
           3.9700000000000006E+000  2.8460000000000001E+000  0.0000000000000000E+000
           3.6899999999999999E+000  3.5730000000000000E+000 -7.6200000000000001E-001
           3.6509999999999998E+000  3.2050000000000001E+000  9.7899999999999998E-001
           5.4840000000000000E+000  2.6870000000000003E+000  0.0000000000000000E+000
           5.9930000000000012E+000  1.5680000000000001E+000  0.0000000000000000E+000
           6.2030000000000012E+000  3.8110000000000004E+000  0.0000000000000000E+000
           5.7450000000000001E+000  4.7030000000000003E+000 -1.2200000000000000E-001
           7.6420000000000003E+000  3.7999999999999998E+000  1.7100000000000001E-001
           7.8830000000000000E+000  3.5540000000000003E+000  1.2050000000000001E+000
           8.0809999999999995E+000  3.0550000000000006E+000 -4.9200000000000005E-001
           8.2270000000000003E+000  5.1660000000000013E+000 -1.6200000000000003E-001
           7.5410000000000004E+000  6.0170000000000003E+000 -7.2399999999999998E-001
           9.3910000000000018E+000  5.4320000000000004E+000  1.2600000000000000E-001
       &END COORD
       &VELOCITY
           0.0000000000000000E+000  0.0000000000000000E+000  0.0000000000000000E+000
           0.0000000000000000E+000  0.0000000000000000E+000  0.0000000000000000E+000
           0.0000000000000000E+000  0.0000000000000000E+000  0.0000000000000000E+000
           0.0000000000000000E+000  0.0000000000000000E+000  0.0000000000000000E+000
           0.0000000000000000E+000  0.0000000000000000E+000  0.0000000000000000E+000
           0.0000000000000000E+000  0.0000000000000000E+000  0.0000000000000000E+000
           0.0000000000000000E+000  0.0000000000000000E+000  0.0000000000000000E+000
           0.0000000000000000E+000  0.0000000000000000E+000  0.0000000000000000E+000
           0.0000000000000000E+000  0.0000000000000000E+000  0.0000000000000000E+000
           0.0000000000000000E+000  0.0000000000000000E+000  0.0000000000000000E+000
           0.0000000000000000E+000  0.0000000000000000E+000  0.0000000000000000E+000
           0.0000000000000000E+000  0.0000000000000000E+000  0.0000000000000000E+000
           0.0000000000000000E+000  0.0000000000000000E+000  0.0000000000000000E+000
           0.0000000000000000E+000  0.0000000000000000E+000  0.0000000000000000E+000
           0.0000000000000000E+000  0.0000000000000000E+000  0.0000000000000000E+000
           0.0000000000000000E+000  0.0000000000000000E+000  0.0000000000000000E+000
           0.0000000000000000E+000  0.0000000000000000E+000  0.0000000000000000E+000
       &END VELOCITY
     &END REPLICA
     &REPLICA
       &COORD
           3.7241947487672866E+000  1.6530291761476148E+000 -9.0994346989649311E-001
           3.9952285556722416E+000  1.1541182134895518E+000 -1.7286414792362996E+000
           3.6291627711821879E+000  2.6348106057659706E+000 -1.1067161322023047E+000
           2.9095809056761888E+000  1.2131965137939817E+000 -5.3778601997954023E-001
           4.7734596675382166E+000  1.5960517615032979E+000  8.6442294629694424E-002
           4.3282044412282010E+000  1.3224467117016683E+000  1.0594806026942694E+000
           5.5063159214625585E+000  8.3519753931545215E-001 -2.0973879323485800E-001
           5.4331037400108562E+000  2.9776149678069754E+000  1.6819921793297102E-001
           4.8276878062650566E+000  3.9081843163674166E+000  7.1985179050457626E-001
           6.6692539721223607E+000  3.0506424915035510E+000 -3.4020458143183857E-001
           6.9172769332358817E+000  2.6462162776860958E+000 -1.2416944747512741E+000
           7.7542755901814120E+000  3.6374333161647430E+000  4.2020571870198009E-001
           7.4574531868821392E+000  3.7395594354880104E+000  1.4619858090353117E+000
           8.6256185427994101E+000  2.9829243642522263E+000  3.7026919182423779E-001
           8.1120790328481185E+000  4.9966251576008398E+000 -1.4714048979504535E-001
           7.3339325328147655E+000  5.9369237641196566E+000  5.8322915490799605E-002
           9.1551794037253860E+000  5.0887870962930117E+000 -8.1127131472804526E-001
       &END COORD
       &VELOCITY
           6.1586462506721840E-004 -1.0317213982157436E-004  2.1437156460294478E-004
           3.3720513871825236E-004 -2.2070616081500442E-005  1.9598008033545601E-004
           8.1378982238707834E-004 -9.4476019282930661E-005  5.2480776742435797E-004
           2.7521354593369821E-004  1.9115433312467993E-004 -3.2608235695970236E-004
           4.5376010291959255E-004 -1.2488495741421444E-004  2.7802227334032596E-004
           2.3625220793933719E-004 -1.3633066559762743E-004  2.2775178282030304E-004
           4.7578897534795371E-004 -1.2960276285057097E-004  2.4244301166081368E-004
           3.4545295447082430E-005  2.4776376730531138E-004 -1.7900429626860762E-004
          -3.2577319543859588E-004  3.4653852968269367E-004 -2.9175774039497186E-004
           1.0116522488092189E-004  7.0556746167515382E-005 -4.6159589579777225E-004
           4.9367180442283466E-004 -6.3279855125853953E-004 -1.9171460596272078E-004
           2.2971667104523688E-005 -1.1917766789917360E-004 -1.7888655468890257E-004
          -1.8434574512158631E-006 -2.4565184665706780E-004 -1.7009161955806510E-004
           1.0066677446207622E-004  3.4058166678589277E-005 -1.5780562912457634E-004
          -1.4952659164525105E-004 -2.0309847490286435E-004  6.2388128475146808E-005
          -2.0221955556924180E-004 -4.6305806819677854E-004  6.8285123699348945E-004
          -5.0016367803352112E-004 -3.6953984697652185E-004 -4.5046487260234550E-004
       &END VELOCITY
     &END REPLICA
     &REPLICA
       &COORD
           4.9530224518000807E+000  1.1988616885946113E+000  3.3035276892768556E-001
           4.1570293078724729E+000  8.2868050014221784E-001  8.5227293912017776E-001
           5.8522234205543349E+000  7.6100088215104278E-001  6.4590429064338561E-001
           4.9336190269530427E+000  1.1581216261794087E+000 -6.8356798104149052E-001
           4.7741207044768146E+000  2.6554227393344370E+000  5.5361240527510691E-001
           3.7554428291493616E+000  2.9797930192192243E+000  4.4782627571806127E-001
           5.1223898661746476E+000  2.8300670962663230E+000  1.5557711895492792E+000
           5.3437428070224113E+000  3.5626115921776478E+000 -5.0990913640651514E-001
           4.7074666913066832E+000  4.4960865211139476E+000 -9.9770711059231831E-001
           6.4316038079977824E+000  3.1056645121424999E+000 -1.0348247880113390E+000
           6.3792405370771288E+000  2.8353080400826975E+000 -1.9779496433922295E+000
           7.7045905797820993E+000  3.2962146192352231E+000 -4.1605488951794584E-001
           7.9080886910424022E+000  2.5870971885129781E+000  3.2755975811562754E-001
           8.4421776363911345E+000  3.2636004648089858E+000 -1.1551625843812658E+000
           7.8674572623180437E+000  4.5912315638158798E+000  2.2499392313458730E-001
           8.4503880793587243E+000  4.5648977037408063E+000  1.3430876590601337E+000
           7.3781132129450713E+000  5.5034775738869675E+000 -4.7213070745355706E-001
       &END COORD
       &VELOCITY
           2.7953039032045067E-003  9.8119557040941721E-004  2.6555448254536392E-003
           2.9519426021143574E-003  1.2841815219758052E-003  3.1322599652606566E-003
           2.6880364614018958E-003  1.3101966241692677E-003  2.6238589234068416E-003
           2.9870714956613314E-003 -7.7977568224035841E-004  2.7131047648064621E-003
           1.0777577727216314E-003  1.2848681752326190E-003  3.4828188536916539E-004
           8.9470347714638474E-004  5.1280179212594949E-005 -1.6253207571726780E-003
          -5.2418126368624491E-004  2.8822482099328675E-003  4.7261995339897698E-004
          -3.0908065231650370E-004  1.1238719627301233E-003 -4.9093930520857361E-004
          -1.9882865139156107E-003 -1.0391851198230711E-003 -2.5914285504698613E-003
          -6.4319320111444142E-004  9.3126058093350307E-004 -7.7987104108338378E-004
          -5.0365068487066996E-004  4.4270570790736503E-003 -1.7734804244891856E-003
          -5.6755800540221808E-004  5.1570396634856687E-004 -6.3758968349089966E-004
          -1.6635399141594287E-006 -6.7423847290569243E-005 -1.1974870782112395E-003
          -8.5150559857591151E-004  2.1846877266757285E-003 -1.0664748257145920E-003
          -4.3312639017917926E-004 -4.1768531669169776E-004  8.8243028381859419E-004
          -1.0988606209530050E-004 -1.8961677974745179E-003  6.8208856854923121E-004
          -5.3759174668369222E-004  2.0214846005127987E-004  1.8121144369494847E-003
       &END VELOCITY
     &END REPLICA
     &REPLICA
       &COORD
           5.9768942049970191E+000  2.1425986503929533E+000  9.3654560097510808E-001
           5.7211718093062558E+000  2.9857624633242619E+000  1.4244705216970128E+000
           6.9981313426094216E+000  2.1094301253915226E+000  9.5287423879606170E-001
           5.5543259994435807E+000  1.3395377336615115E+000  1.3517942410932624E+000
           5.5580306751192730E+000  2.3017085863536639E+000 -4.5105710689811707E-001
           6.3859401182448954E+000  2.0599780327138024E+000 -1.1161457780620834E+000
           4.7323176096460733E+000  1.6201813366511111E+000 -6.2574433887362324E-001
           5.0906725612189225E+000  3.7151814414190230E+000 -7.7465219269106900E-001
           4.0068309842172969E+000  3.8005309688439883E+000 -1.3436357759596014E+000
           5.7355447854906014E+000  4.8540415510918340E+000 -4.8080166334952135E-001
           5.3995215887480246E+000  5.6692758274508401E+000 -9.5839786115289805E-001
           6.8970481747440715E+000  5.1264806517520736E+000  3.4112887528233260E-001
           7.3651308895909757E+000  6.0488241424612612E+000  7.7460525526112543E-003
           6.5621743453722026E+000  5.2626925296528073E+000  1.3651101823655811E+000
           7.9030386694827515E+000  4.0176234416205050E+000  2.4167258412484519E-001
           8.1928393309249774E+000  3.4474997469485751E+000  1.3164285830409550E+000
           8.0936326513013359E+000  3.5461770175453156E+000 -8.9399507720834182E-001
       &END COORD
       &VELOCITY
           1.5753956244368998E-004 -2.2831014345092113E-004  6.9162192699155446E-005
           3.3357355661190092E-004 -3.1745210357286732E-004  3.3167910414534099E-004
           9.8484716472548730E-005 -5.4682778117422989E-005 -1.4539292884536926E-004
           5.0671758151280217E-004 -5.2117386651097299E-004 -2.6768841968483241E-005
          -7.4544713590441901E-005 -2.2765392083488997E-005  1.3477957595292076E-004
          -2.1079461163787339E-004 -1.6478641128128625E-004 -5.5597815960858291E-005
          -2.1965581078880239E-004  6.9336313751099159E-005  2.7126757197499759E-004
          -3.2700348927379810E-005  7.2399619888768865E-005  1.2166912946289814E-004
           4.6461244570044834E-005 -1.9284181614040467E-005 -8.9121130215389350E-005
          -4.7368532972652426E-005  1.6833173874473078E-004  6.7308073515145143E-005
          -7.0160522193588904E-006  1.9660094004626610E-004 -3.0974755262282055E-005
           1.4167215103138520E-004  1.7908419225967913E-004 -1.5627610708497176E-004
           2.5868497003866931E-004 -1.7572332044158621E-005 -6.3918977571146552E-004
           3.0142426241957539E-004  5.0369952957253429E-004 -5.2057201146890207E-005
           5.8515670346989579E-005 -3.4773119591631707E-006 -1.4917239867115234E-004
           1.2584994556775068E-004  1.0092650498043049E-004 -1.9930765119041287E-004
           1.1989257785833204E-004 -3.7004845114377630E-004  5.9208520302411805E-005
       &END VELOCITY
     &END REPLICA
     &REPLICA
       &COORD
           3.5328194534917614E+000  1.5265128333403608E+000  8.2244276860180238E-002
           3.0560670667925454E+000  2.1265933213941790E+000 -5.7631442943235411E-001
           3.1416700862911613E+000  1.6777094342101666E+000  1.0007842925502910E+000
           3.5746877245285016E+000  5.9302603519101171E-001 -3.0140718679044548E-001
           4.9103805700011636E+000  1.9644990546433372E+000  1.7563828218234584E-001
           5.2273602435522246E+000  1.9478789361768096E+000  1.2188691570214778E+000
           5.5449584286065878E+000  1.2971855981851048E+000 -4.0709381080509432E-001
           5.0547208521792708E+000  3.3808907335452174E+000 -3.6332135905089064E-001
           4.0593076540088067E+000  4.0655092420899201E+000 -5.9068024422162657E-001
           6.2984559887700158E+000  3.8188973553724392E+000 -5.6730692041519137E-001
           6.5545496878537541E+000  4.2132713069186174E+000 -1.4618940898019765E+000
           7.3146860650752963E+000  3.7488062461166867E+000  4.6364684596614530E-001
           6.9102421102889320E+000  4.1386278439675888E+000  1.3984153784305930E+000
           7.6190601845098671E+000  2.7121810437670288E+000  6.0261297591140262E-001
           8.5308538773328664E+000  4.5736327355140958E+000  6.7506574323658558E-002
           8.4739414181807806E+000  5.3510520243473536E+000 -8.8275298039981420E-001
           9.5823105508429727E+000  4.4728321349773879E+000  6.9407189626742927E-001
       &END COORD
       &VELOCITY
           0.0000000000000000E+000  0.0000000000000000E+000  0.0000000000000000E+000
           0.0000000000000000E+000  0.0000000000000000E+000  0.0000000000000000E+000
           0.0000000000000000E+000  0.0000000000000000E+000  0.0000000000000000E+000
           0.0000000000000000E+000  0.0000000000000000E+000  0.0000000000000000E+000
           0.0000000000000000E+000  0.0000000000000000E+000  0.0000000000000000E+000
           0.0000000000000000E+000  0.0000000000000000E+000  0.0000000000000000E+000
           0.0000000000000000E+000  0.0000000000000000E+000  0.0000000000000000E+000
           0.0000000000000000E+000  0.0000000000000000E+000  0.0000000000000000E+000
           0.0000000000000000E+000  0.0000000000000000E+000  0.0000000000000000E+000
           0.0000000000000000E+000  0.0000000000000000E+000  0.0000000000000000E+000
           0.0000000000000000E+000  0.0000000000000000E+000  0.0000000000000000E+000
           0.0000000000000000E+000  0.0000000000000000E+000  0.0000000000000000E+000
           0.0000000000000000E+000  0.0000000000000000E+000  0.0000000000000000E+000
           0.0000000000000000E+000  0.0000000000000000E+000  0.0000000000000000E+000
           0.0000000000000000E+000  0.0000000000000000E+000  0.0000000000000000E+000
           0.0000000000000000E+000  0.0000000000000000E+000  0.0000000000000000E+000
           0.0000000000000000E+000  0.0000000000000000E+000  0.0000000000000000E+000
       &END VELOCITY
     &END REPLICA
     &PROGRAM_RUN_INFO SILENT
     &END PROGRAM_RUN_INFO
     &CONVERGENCE_INFO SILENT
     &END CONVERGENCE_INFO
   &END BAND
   &PRINT
     &VELOCITIES OFF
     &END VELOCITIES
   &END PRINT
 &END MOTION
 &FORCE_EVAL
   METHOD FIST
   &MM
     &FORCEFIELD
       PARMTYPE CHM
       PARM_FILE_NAME ./amber/mol.pot
       &SPLINE
         R0_NB  5.2917720859000010E-005
         RCUT_NB  2.0000000000000004E+001
         EMAX_SPLINE  1.0000000000000000E+010
         EMAX_ACCURACY  5.0000000000000000E+002
         EPS_SPLINE  9.9999999999999995E-007
       &END SPLINE
     &END FORCEFIELD
     &POISSON
       &EWALD
         EWALD_TYPE EWALD
         ALPHA  3.5999999999999999E-001
         GMAX 29
       &END EWALD
     &END POISSON
     &PRINT
       &FF_INFO SILENT
         SPLINE_INFO T
       &END FF_INFO
     &END PRINT
   &END MM
   &SUBSYS
     &CELL
       A  3.0000000000000007E+001  0.0000000000000000E+000  0.0000000000000000E+000
       B  0.0000000000000000E+000  3.0000000000000007E+001  0.0000000000000000E+000
       C  0.0000000000000000E+000  0.0000000000000000E+000  3.0000000000000007E+001
       MULTIPLE_UNIT_CELL 1 1 1
     &END CELL
     &COORD
       N3  3.3290000000000006E+000  1.5780000000000003E+000 -2.8199999999999997E-001
       H11  4.0149999999999997E+000  9.6499999999999997E-001 -7.0000000000000007E-001
       H11  2.6180000000000003E+000  1.7849999999999999E+000 -9.6900000000000008E-001
       H11  3.0670000000000002E+000  1.2050000000000001E+000  6.1899999999999999E-001
       CT1  3.9700000000000006E+000  2.8460000000000001E+000  0.0000000000000000E+000
       HP  3.6899999999999999E+000  3.5730000000000000E+000 -7.6200000000000001E-001
       HP  3.6509999999999998E+000  3.2050000000000001E+000  9.7899999999999998E-001
       C1  5.4840000000000000E+000  2.6870000000000003E+000  0.0000000000000000E+000
       O  5.9930000000000012E+000  1.5680000000000001E+000  0.0000000000000000E+000
       N  6.2030000000000012E+000  3.8110000000000004E+000  0.0000000000000000E+000
       H2  5.7450000000000001E+000  4.7030000000000003E+000 -1.2200000000000000E-001
       CT2  7.6420000000000003E+000  3.7999999999999998E+000  1.7100000000000001E-001
       H12  7.8830000000000000E+000  3.5540000000000003E+000  1.2050000000000001E+000
       H12  8.0809999999999995E+000  3.0550000000000006E+000 -4.9200000000000005E-001
       C2  8.2270000000000003E+000  5.1660000000000013E+000 -1.6200000000000003E-001
       O2  7.5410000000000004E+000  6.0170000000000003E+000 -7.2399999999999998E-001
       O2  9.3910000000000018E+000  5.4320000000000004E+000  1.2600000000000000E-001
     &END COORD
     &TOPOLOGY
       CHARGE_BETA T
       COORD_FILE_NAME ./amber/mol.pdb
       COORD_FILE_FORMAT PDB
       NUMBER_OF_ATOMS 17
       CONN_FILE_NAME ./amber/mol.psf
       CONN_FILE_FORMAT UPSF
       MULTIPLE_UNIT_CELL 1 1 1
     &END TOPOLOGY
   &END SUBSYS
 &END FORCE_EVAL
