 # Version information for this restart file 
 # current date 2026-04-22 11:54:42.189
 # current working dir /DATA/lab07/hglee/cp2k_agent/test/level7
 # Program compiled at                                       2026-03-01 16:41:12
 # Program compiled on                                                    master
 # Program compiled for                                                   x86_64
 # Source code revision number                                       git:5e54ba2
 &GLOBAL
   PRINT_LEVEL LOW
   PROJECT_NAME "2gly_B-NEB-r-0"
   OUTPUT_FILE_NAME 2gly_B-NEB-r-0.out
   RUN_TYPE BAND
 &END GLOBAL
 &MOTION
   &BAND
     NPROC_REP 1
     BAND_TYPE B-NEB
     NUMBER_OF_REPLICA 5
     ROTATE_FRAMES T
     K_SPRING  5.0000000000000003E-002
     &CONVERGENCE_CONTROL
       MAX_FORCE  1.0000000000000000E-003
       RMS_FORCE  5.0000000000000001E-004
     &END CONVERGENCE_CONTROL
     &OPTIMIZE_BAND
       OPT_TYPE MD
       &MD
         MAX_STEPS 20
         TIMESTEP  4.9999999999999994E-001
         TEMPERATURE  1.0000000000000001E+002
         &VEL_CONTROL
           ANNEALING  9.4999999999999996E-001
           PROJ_VELOCITY_VERLET T
         &END VEL_CONTROL
       &END MD
     &END OPTIMIZE_BAND
     &REPLICA
       &COORD
           3.3290000000000006E+000  1.5780000000000003E+000 -2.8199999999999997E-001
           4.0149999999999997E+000  9.6499999999999997E-001 -7.0000000000000007E-001
           2.6180000000000003E+000  1.7849999999999999E+000 -9.6900000000000008E-001
           3.0670000000000002E+000  1.2050000000000001E+000  6.1899999999999999E-001
           3.9700000000000006E+000  2.8460000000000001E+000  0.0000000000000000E+000
           3.6899999999999999E+000  3.5730000000000000E+000 -7.6200000000000001E-001
           3.6509999999999998E+000  3.2050000000000001E+000  9.7899999999999998E-001
           5.4840000000000000E+000  2.6870000000000003E+000  0.0000000000000000E+000
           5.9930000000000012E+000  1.5680000000000001E+000  0.0000000000000000E+000
           6.2030000000000012E+000  3.8110000000000004E+000  0.0000000000000000E+000
           5.7450000000000001E+000  4.7030000000000003E+000 -1.2200000000000000E-001
           7.6420000000000003E+000  3.7999999999999998E+000  1.7100000000000001E-001
           7.8830000000000000E+000  3.5540000000000003E+000  1.2050000000000001E+000
           8.0809999999999995E+000  3.0550000000000006E+000 -4.9200000000000005E-001
           8.2270000000000003E+000  5.1660000000000013E+000 -1.6200000000000003E-001
           7.5410000000000004E+000  6.0170000000000003E+000 -7.2399999999999998E-001
           9.3910000000000018E+000  5.4320000000000004E+000  1.2600000000000000E-001
       &END COORD
       &VELOCITY
           0.0000000000000000E+000  0.0000000000000000E+000  0.0000000000000000E+000
           0.0000000000000000E+000  0.0000000000000000E+000  0.0000000000000000E+000
           0.0000000000000000E+000  0.0000000000000000E+000  0.0000000000000000E+000
           0.0000000000000000E+000  0.0000000000000000E+000  0.0000000000000000E+000
           0.0000000000000000E+000  0.0000000000000000E+000  0.0000000000000000E+000
           0.0000000000000000E+000  0.0000000000000000E+000  0.0000000000000000E+000
           0.0000000000000000E+000  0.0000000000000000E+000  0.0000000000000000E+000
           0.0000000000000000E+000  0.0000000000000000E+000  0.0000000000000000E+000
           0.0000000000000000E+000  0.0000000000000000E+000  0.0000000000000000E+000
           0.0000000000000000E+000  0.0000000000000000E+000  0.0000000000000000E+000
           0.0000000000000000E+000  0.0000000000000000E+000  0.0000000000000000E+000
           0.0000000000000000E+000  0.0000000000000000E+000  0.0000000000000000E+000
           0.0000000000000000E+000  0.0000000000000000E+000  0.0000000000000000E+000
           0.0000000000000000E+000  0.0000000000000000E+000  0.0000000000000000E+000
           0.0000000000000000E+000  0.0000000000000000E+000  0.0000000000000000E+000
           0.0000000000000000E+000  0.0000000000000000E+000  0.0000000000000000E+000
           0.0000000000000000E+000  0.0000000000000000E+000  0.0000000000000000E+000
       &END VELOCITY
     &END REPLICA
     &REPLICA
       &COORD
           3.5228241019505240E+000  1.8819271803672593E+000 -8.5352666942160849E-001
           3.6174752296590791E+000  1.6304951194711106E+000 -1.8172539446415408E+000
           3.4136717430283552E+000  2.8831517472852237E+000 -7.6870966033321142E-001
           2.8130107892857064E+000  1.3083829470160020E+000 -4.3573294237405241E-001
           4.7602801517113278E+000  1.5830606568318666E+000 -1.6069561426538417E-001
           4.5340549208837544E+000  1.0373418638805649E+000  7.6571056609059618E-001
           5.3885015267919893E+000  9.6068125189214815E-001 -8.0272208346894991E-001
           5.4899087562402968E+000  2.8824010470063466E+000  1.7483386328239817E-001
           5.0627736094330480E+000  3.6088089991567580E+000  1.0729391714827508E+000
           6.5911237344365006E+000  3.1329390677260167E+000 -5.3046796177450983E-001
           6.6049095425245223E+000  3.0422841448185576E+000 -1.5378650661123279E+000
           7.8316089243619560E+000  3.5260867052209974E+000  1.0891557296842488E-001
           7.7619189648305191E+000  3.3413019853765848E+000  1.1802369876165244E+000
           8.6514406920997011E+000  2.9323671707074896E+000 -3.0057558738161394E-001
           8.1124287900374288E+000  5.0033209892658590E+000 -1.3430252723725492E-001
           7.4328423714521383E+000  5.8535196521676651E+000  4.5141093818148958E-001
           9.0116475067026780E+000  5.3205768555529440E+000 -9.2329743731540626E-001
       &END COORD
       &VELOCITY
           3.6200163265967956E-004 -7.1766561773685611E-005  1.5447346719625883E-005
           8.6546981059096179E-005  2.2146061726813705E-005  1.7287610403743327E-005
           2.6831555369661285E-004 -1.4440032004519514E-004  3.0783420579193622E-004
           2.9038906231379247E-005  2.6423535893281878E-004 -1.8296550458380374E-004
           3.1155683881435554E-004 -7.7149135190614809E-005  1.1149822802775031E-004
           6.6440819375874273E-005 -5.2626258169311539E-005  1.5477549587500865E-004
           2.5356291347099788E-004 -1.7231629331806945E-004  1.0501912596217082E-004
           1.1121783676624466E-005  2.1853699399052037E-004 -1.1507159149055976E-004
          -2.4805078615194978E-004  8.6138125093044058E-005 -1.9691308174498644E-005
           6.5305076947996327E-005  1.3035659347793946E-004 -2.0003569404915137E-004
           3.8855971069634245E-004 -3.2936973916618180E-004 -1.7739286603532533E-004
           2.8480657496380795E-005  5.0980493759540365E-005 -1.1365775596364887E-004
           4.6124590527950047E-005 -1.4917630878795446E-004 -1.3274035486534548E-004
           5.3969803437447322E-006  2.7190202766418621E-005 -1.1205103328574519E-004
          -5.0581987973373131E-005  3.8071300562896615E-005  1.4836405231766096E-005
          -2.9958484325157391E-004 -3.3762202571999361E-004  4.3444935330550708E-004
          -1.5795290795056569E-004 -3.3188513377669537E-004 -3.7832410771432631E-004
       &END VELOCITY
     &END REPLICA
     &REPLICA
       &COORD
           4.8047575802082134E+000  1.1457045623051025E+000 -8.3154005237652096E-002
           4.0692696505093480E+000  6.3686667893530424E-001  4.0230565106744165E-001
           5.7287882213339119E+000  6.6328670108704546E-001  3.4712693438551739E-002
           4.6138923501649174E+000  1.3834725435350725E+000 -1.0582270420438833E+000
           4.7978190542737922E+000  2.4689116743765553E+000  5.5589561514228714E-001
           3.8000206734086972E+000  2.7967425495494762E+000  7.8569326223854652E-001
           5.3748567157844516E+000  2.3737261961884260E+000  1.4670631716974587E+000
           5.3157003470569775E+000  3.5654372370943870E+000 -3.5132202982204142E-001
           4.7479641358391094E+000  4.6475318974126205E+000 -4.1923897360546714E-001
           6.3331175322310438E+000  3.2370370102216897E+000 -1.1027177774613792E+000
           6.1554199203492548E+000  2.9961834582480278E+000 -2.0408564862212324E+000
           7.6867903736918306E+000  3.3339861888879367E+000 -6.3874565973159436E-001
           7.9447354671934356E+000  2.5032609301491728E+000 -4.2017216910729606E-002
           8.3355056761317812E+000  3.3740749339740610E+000 -1.4659077575884372E+000
           7.9271063578430780E+000  4.5588189138282988E+000  1.6839217933445269E-001
           8.6266979874632987E+000  4.4292901011490429E+000  1.2012120260003158E+000
           7.3824618351184874E+000  5.5855202486203179E+000 -2.7672393929460987E-001
       &END COORD
       &VELOCITY
           2.5173271388694361E-003 -1.4205176975514680E-004  1.6969235327387606E-003
           2.3211044988462352E-003  4.7815347502554265E-004  2.5031274901241374E-003
           2.3621143186361641E-003 -2.7089340075864927E-004  9.6277779160417669E-004
           2.8771100101209384E-003 -8.4927374272186947E-004  1.3261234801155706E-003
           8.9816917052516949E-004  8.5369820043539654E-004  1.5104738221434873E-004
           5.9512563693147355E-004  1.1684346809941776E-003 -1.4824502017081380E-003
          -4.1450985311415974E-004  1.4764337900216281E-003  8.3312353564507925E-004
          -2.4589081378374261E-004  1.0304349248215305E-003 -7.3759316354333879E-005
          -1.8169001444128590E-003  1.4726235548171267E-004 -1.9250389035856928E-003
          -5.0186651028100051E-004  1.0847732589854611E-003  1.3082188104182444E-004
          -6.2314625874464126E-004  2.6189714579891291E-003 -1.4834777107504166E-004
          -6.9607121052916640E-004  9.2289435128429175E-004  1.3504429250711279E-004
          -1.3334813770309742E-004  8.1283141404603191E-004 -5.0041143258149306E-004
          -8.9652976051386214E-004  1.6369061024112991E-003  2.3023354065777288E-004
          -1.1914143970605660E-004 -3.4319673682769460E-004  6.2095898884535175E-004
           4.4273637211303326E-004 -2.3622669943157088E-003  1.9873909559364313E-004
          -7.2912587437768664E-004 -6.5634768578124684E-004  3.3020432772121942E-004
       &END VELOCITY
     &END REPLICA
     &REPLICA
       &COORD
           6.1075177799189291E+000  1.9378418864330376E+000  5.9940379404835542E-001
           5.9436035361405892E+000  2.6504579245844875E+000  1.2919927345924962E+000
           7.1190389540223391E+000  1.9212621380192960E+000  4.5241869325957557E-001
           5.7372872274534501E+000  1.0548736218398476E+000  8.8143511290890497E-001
           5.4934302454197672E+000  2.4035172837792289E+000 -6.3583023549925233E-001
           6.2179841669025251E+000  2.3420139483946096E+000 -1.4455415074928344E+000
           4.6485408258030532E+000  1.7585151467279176E+000 -8.5544529795377877E-001
           5.0024663731919565E+000  3.8427731303358597E+000 -5.2473725448637576E-001
           3.8382655366312086E+000  4.0337564913249748E+000 -8.5994270938500794E-001
           5.7058955681199475E+000  4.8917154154104496E+000 -6.8835544280736433E-002
           5.3162216542339786E+000  5.7932480587981381E+000 -2.6899333734777958E-001
           6.9833091603845379E+000  4.9810285859067180E+000  6.0743634889159059E-001
           7.3981105677314627E+000  5.9753674953124527E+000  4.6577039517192492E-001
           6.8121868997786841E+000  4.8398705242203190E+000  1.6699080902402730E+000
           7.9508520295412461E+000  3.9614367887147135E+000  7.5317140612601738E-002
           8.3955768523584151E+000  3.1514156427321973E+000  9.2003418964775252E-001
           7.9552274291801996E+000  3.7823835815482596E+000 -1.1574951225070009E+000
       &END COORD
       &VELOCITY
           3.5897675025522714E-004 -1.1119076108066514E-004 -4.6352884709802013E-005
           2.9318205486173160E-004 -3.9483265964635530E-004  2.3669798573268803E-004
           3.3586979140324527E-004 -1.2251940087115037E-004 -1.6023710902331675E-004
           3.2297907310303376E-004 -8.9664008087116318E-005 -1.3310208230455132E-004
           1.1702983873147769E-005  6.4256433253542989E-005  1.6273461291850636E-004
          -2.8847201242004829E-004  1.9204582039554258E-004 -1.0421319670892037E-004
          -1.0833353156616811E-004  1.6077786747450376E-004  4.6975244065741310E-004
           3.5083159900951532E-005 -2.9187410918595582E-007  2.8337346883858751E-005
           9.7293358657844992E-005  9.5706497091781320E-005 -1.2950216320601200E-004
           3.3231920259760621E-005 -5.4017635326545857E-005 -4.4943305204808766E-005
          -9.4908090690904175E-005 -1.4470647425829115E-004 -1.0859333289739354E-004
           9.6778994625193216E-005  1.5476116597633355E-005 -1.7678848425135485E-004
           2.1389943986944258E-004 -1.0515242147559864E-004 -5.1006168775735250E-004
           1.8520776614585149E-004  2.9153609810264142E-004 -1.4224098582567835E-004
          -6.9741210462689440E-005 -1.1003500440701200E-004  1.6050861433908591E-005
          -5.3444104319214950E-006 -4.1197430494353753E-005  8.1467904705443398E-005
          -3.1196789519515332E-004  8.2677364278566711E-005 -8.8779946365046419E-006
       &END VELOCITY
     &END REPLICA
     &REPLICA
       &COORD
           3.5612764116221065E+000  1.4839699670511695E+000  1.8349371354277635E-002
           2.9953275121326621E+000  2.2169506608307286E+000 -3.8603923594459871E-001
           3.3276235502768419E+000  1.3962761218745023E+000  9.9676141640651594E-001
           3.5224064596912217E+000  6.7451384678204074E-001 -5.8465055915628206E-001
           4.9437907493513595E+000  1.9154549380348636E+000 -8.1803438393016504E-003
           5.4257875241207811E+000  1.6499040322588998E+000  9.3322542709767309E-001
           5.4623436662180218E+000  1.4257651615732585E+000 -8.3212196509535796E-001
           5.0255658355255397E+000  3.4236500260077749E+000 -1.9827877070178573E-001
           4.0196692829946130E+000  4.1213126123178156E+000 -8.5668641185894345E-002
           6.2277114347771478E+000  3.9253143623374656E+000 -4.8726986373907133E-001
           6.3424271621402717E+000  4.5328933442169674E+000 -1.2867003376852528E+000
           7.3965107975912794E+000  3.6261810505075776E+000  3.1580504636518758E-001
           7.1569310304657003E+000  3.7654607496268286E+000  1.3705707552301027E+000
           7.6996069897427288E+000  2.5940693720907730E+000  1.4426734911196534E-001
           8.5475957310760986E+000  4.5493274756609177E+000 -5.7201861923202063E-002
           8.3517797630096062E+000  5.5349814521854244E+000 -7.6484255126462786E-001
           9.6848150010165881E+000  4.3205670962631011E+000  3.4616772157781589E-001
       &END COORD
       &VELOCITY
           0.0000000000000000E+000  0.0000000000000000E+000  0.0000000000000000E+000
           0.0000000000000000E+000  0.0000000000000000E+000  0.0000000000000000E+000
           0.0000000000000000E+000  0.0000000000000000E+000  0.0000000000000000E+000
           0.0000000000000000E+000  0.0000000000000000E+000  0.0000000000000000E+000
           0.0000000000000000E+000  0.0000000000000000E+000  0.0000000000000000E+000
           0.0000000000000000E+000  0.0000000000000000E+000  0.0000000000000000E+000
           0.0000000000000000E+000  0.0000000000000000E+000  0.0000000000000000E+000
           0.0000000000000000E+000  0.0000000000000000E+000  0.0000000000000000E+000
           0.0000000000000000E+000  0.0000000000000000E+000  0.0000000000000000E+000
           0.0000000000000000E+000  0.0000000000000000E+000  0.0000000000000000E+000
           0.0000000000000000E+000  0.0000000000000000E+000  0.0000000000000000E+000
           0.0000000000000000E+000  0.0000000000000000E+000  0.0000000000000000E+000
           0.0000000000000000E+000  0.0000000000000000E+000  0.0000000000000000E+000
           0.0000000000000000E+000  0.0000000000000000E+000  0.0000000000000000E+000
           0.0000000000000000E+000  0.0000000000000000E+000  0.0000000000000000E+000
           0.0000000000000000E+000  0.0000000000000000E+000  0.0000000000000000E+000
           0.0000000000000000E+000  0.0000000000000000E+000  0.0000000000000000E+000
       &END VELOCITY
     &END REPLICA
     &PROGRAM_RUN_INFO SILENT
     &END PROGRAM_RUN_INFO
     &CONVERGENCE_INFO SILENT
     &END CONVERGENCE_INFO
   &END BAND
   &PRINT
     &VELOCITIES OFF
     &END VELOCITIES
   &END PRINT
 &END MOTION
 &FORCE_EVAL
   METHOD FIST
   &MM
     &FORCEFIELD
       PARMTYPE CHM
       PARM_FILE_NAME ./amber/mol.pot
       &SPLINE
         R0_NB  5.2917720859000010E-005
         RCUT_NB  2.0000000000000004E+001
         EMAX_SPLINE  1.0000000000000000E+010
         EMAX_ACCURACY  5.0000000000000000E+002
         EPS_SPLINE  9.9999999999999995E-007
       &END SPLINE
     &END FORCEFIELD
     &POISSON
       &EWALD
         EWALD_TYPE EWALD
         ALPHA  3.5999999999999999E-001
         GMAX 29
       &END EWALD
     &END POISSON
     &PRINT
       &FF_INFO SILENT
         SPLINE_INFO T
       &END FF_INFO
     &END PRINT
   &END MM
   &SUBSYS
     &CELL
       A  3.0000000000000007E+001  0.0000000000000000E+000  0.0000000000000000E+000
       B  0.0000000000000000E+000  3.0000000000000007E+001  0.0000000000000000E+000
       C  0.0000000000000000E+000  0.0000000000000000E+000  3.0000000000000007E+001
       MULTIPLE_UNIT_CELL 1 1 1
     &END CELL
     &COORD
       N3  3.3290000000000006E+000  1.5780000000000003E+000 -2.8199999999999997E-001
       H11  4.0149999999999997E+000  9.6499999999999997E-001 -7.0000000000000007E-001
       H11  2.6180000000000003E+000  1.7849999999999999E+000 -9.6900000000000008E-001
       H11  3.0670000000000002E+000  1.2050000000000001E+000  6.1899999999999999E-001
       CT1  3.9700000000000006E+000  2.8460000000000001E+000  0.0000000000000000E+000
       HP  3.6899999999999999E+000  3.5730000000000000E+000 -7.6200000000000001E-001
       HP  3.6509999999999998E+000  3.2050000000000001E+000  9.7899999999999998E-001
       C1  5.4840000000000000E+000  2.6870000000000003E+000  0.0000000000000000E+000
       O  5.9930000000000012E+000  1.5680000000000001E+000  0.0000000000000000E+000
       N  6.2030000000000012E+000  3.8110000000000004E+000  0.0000000000000000E+000
       H2  5.7450000000000001E+000  4.7030000000000003E+000 -1.2200000000000000E-001
       CT2  7.6420000000000003E+000  3.7999999999999998E+000  1.7100000000000001E-001
       H12  7.8830000000000000E+000  3.5540000000000003E+000  1.2050000000000001E+000
       H12  8.0809999999999995E+000  3.0550000000000006E+000 -4.9200000000000005E-001
       C2  8.2270000000000003E+000  5.1660000000000013E+000 -1.6200000000000003E-001
       O2  7.5410000000000004E+000  6.0170000000000003E+000 -7.2399999999999998E-001
       O2  9.3910000000000018E+000  5.4320000000000004E+000  1.2600000000000000E-001
     &END COORD
     &TOPOLOGY
       CHARGE_BETA T
       COORD_FILE_NAME ./amber/mol.pdb
       COORD_FILE_FORMAT PDB
       NUMBER_OF_ATOMS 17
       CONN_FILE_NAME ./amber/mol.psf
       CONN_FILE_FORMAT UPSF
       MULTIPLE_UNIT_CELL 1 1 1
     &END TOPOLOGY
   &END SUBSYS
 &END FORCE_EVAL
