 # Version information for this restart file 
 # current date 2026-04-22 11:54:42.153
 # current working dir /DATA/lab07/hglee/cp2k_agent/test/level7
 # Program compiled at                                       2026-03-01 16:41:12
 # Program compiled on                                                    master
 # Program compiled for                                                   x86_64
 # Source code revision number                                       git:5e54ba2
 &GLOBAL
   PRINT_LEVEL LOW
   PROJECT_NAME "2gly_B-NEB-r-0"
   OUTPUT_FILE_NAME 2gly_B-NEB-r-0.out
   RUN_TYPE BAND
 &END GLOBAL
 &MOTION
   &BAND
     NPROC_REP 1
     BAND_TYPE B-NEB
     NUMBER_OF_REPLICA 5
     ROTATE_FRAMES T
     K_SPRING  5.0000000000000003E-002
     &CONVERGENCE_CONTROL
       MAX_FORCE  1.0000000000000000E-003
       RMS_FORCE  5.0000000000000001E-004
     &END CONVERGENCE_CONTROL
     &OPTIMIZE_BAND
       OPT_TYPE MD
       &MD
         MAX_STEPS 20
         TIMESTEP  4.9999999999999994E-001
         TEMPERATURE  1.0000000000000001E+002
         &VEL_CONTROL
           ANNEALING  9.4999999999999996E-001
           PROJ_VELOCITY_VERLET T
         &END VEL_CONTROL
       &END MD
     &END OPTIMIZE_BAND
     &REPLICA
       &COORD
           3.3290000000000006E+000  1.5780000000000003E+000 -2.8199999999999997E-001
           4.0149999999999997E+000  9.6499999999999997E-001 -7.0000000000000007E-001
           2.6180000000000003E+000  1.7849999999999999E+000 -9.6900000000000008E-001
           3.0670000000000002E+000  1.2050000000000001E+000  6.1899999999999999E-001
           3.9700000000000006E+000  2.8460000000000001E+000  0.0000000000000000E+000
           3.6899999999999999E+000  3.5730000000000000E+000 -7.6200000000000001E-001
           3.6509999999999998E+000  3.2050000000000001E+000  9.7899999999999998E-001
           5.4840000000000000E+000  2.6870000000000003E+000  0.0000000000000000E+000
           5.9930000000000012E+000  1.5680000000000001E+000  0.0000000000000000E+000
           6.2030000000000012E+000  3.8110000000000004E+000  0.0000000000000000E+000
           5.7450000000000001E+000  4.7030000000000003E+000 -1.2200000000000000E-001
           7.6420000000000003E+000  3.7999999999999998E+000  1.7100000000000001E-001
           7.8830000000000000E+000  3.5540000000000003E+000  1.2050000000000001E+000
           8.0809999999999995E+000  3.0550000000000006E+000 -4.9200000000000005E-001
           8.2270000000000003E+000  5.1660000000000013E+000 -1.6200000000000003E-001
           7.5410000000000004E+000  6.0170000000000003E+000 -7.2399999999999998E-001
           9.3910000000000018E+000  5.4320000000000004E+000  1.2600000000000000E-001
       &END COORD
       &VELOCITY
           0.0000000000000000E+000  0.0000000000000000E+000  0.0000000000000000E+000
           0.0000000000000000E+000  0.0000000000000000E+000  0.0000000000000000E+000
           0.0000000000000000E+000  0.0000000000000000E+000  0.0000000000000000E+000
           0.0000000000000000E+000  0.0000000000000000E+000  0.0000000000000000E+000
           0.0000000000000000E+000  0.0000000000000000E+000  0.0000000000000000E+000
           0.0000000000000000E+000  0.0000000000000000E+000  0.0000000000000000E+000
           0.0000000000000000E+000  0.0000000000000000E+000  0.0000000000000000E+000
           0.0000000000000000E+000  0.0000000000000000E+000  0.0000000000000000E+000
           0.0000000000000000E+000  0.0000000000000000E+000  0.0000000000000000E+000
           0.0000000000000000E+000  0.0000000000000000E+000  0.0000000000000000E+000
           0.0000000000000000E+000  0.0000000000000000E+000  0.0000000000000000E+000
           0.0000000000000000E+000  0.0000000000000000E+000  0.0000000000000000E+000
           0.0000000000000000E+000  0.0000000000000000E+000  0.0000000000000000E+000
           0.0000000000000000E+000  0.0000000000000000E+000  0.0000000000000000E+000
           0.0000000000000000E+000  0.0000000000000000E+000  0.0000000000000000E+000
           0.0000000000000000E+000  0.0000000000000000E+000  0.0000000000000000E+000
           0.0000000000000000E+000  0.0000000000000000E+000  0.0000000000000000E+000
       &END VELOCITY
     &END REPLICA
     &REPLICA
       &COORD
           3.4773062182879322E+000  1.9310778807397864E+000 -8.2338151736023590E-001
           3.5316158481508699E+000  1.7387166541771029E+000 -1.8062913821610296E+000
           3.3773286618885336E+000  2.9275305026560039E+000 -6.7996881519506303E-001
           2.7970814917194327E+000  1.3194950490102242E+000 -4.0540892337526402E-001
           4.7471974642848442E+000  1.5893390932798133E+000 -2.1541240772374140E-001
           4.5720381080433032E+000  9.8573636535269271E-001  6.8179121114032326E-001
           5.3435393181872115E+000  1.0139706492587639E+000 -9.2567097465751913E-001
           5.5023189737749121E+000  2.8575373468052643E+000  1.7146561935436422E-001
           5.1276185982268538E+000  3.5305980225132316E+000  1.1307502955560613E+000
           6.5681193949709300E+000  3.1571603654737208E+000 -5.6729619820710908E-001
           6.5212712602340517E+000  3.1430050178294575E+000 -1.5769353025687172E+000
           7.8391322765065015E+000  3.5112751974064587E+000  3.2833834192348053E-002
           7.8205844944338789E+000  3.2647204534779650E+000  1.0933413551921638E+000
           8.6378963407450886E+000  2.9473436868825051E+000 -4.5270225266194414E-001
           8.1123177255361387E+000  5.0010688638418852E+000 -1.3194737453117836E-001
           7.4720339297802818E+000  5.8218380173807711E+000  5.2817468340448659E-001
           8.9741202123068806E+000  5.3800977990972818E+000 -9.3071852972020885E-001
       &END COORD
       &VELOCITY
           2.4089371564262670E-004 -6.6743641459504391E-005 -4.5004838824943856E-005
           3.1800377252469884E-005  2.6029141412193652E-005  2.1863819624304195E-005
           1.0578355807759760E-004 -1.1076500602831137E-004  2.2297596144548915E-004
          -2.9529281875525221E-005  2.3619808387837770E-004 -9.8922179351638154E-005
           2.2315867844710711E-004 -2.8961607623931533E-005  6.2654855989661951E-005
           2.0151763478276247E-005 -4.4104359747511535E-005  1.1180643269227285E-004
           1.4463557876078273E-004 -1.2675009696133544E-004  5.0984206341985550E-005
           2.9702021937004508E-005  1.8971478367719985E-004 -7.3510823458371307E-005
          -1.6686822814526961E-004 -1.2498916544970585E-005  1.5114091459446991E-005
           1.1388513216209771E-005  7.6195507380779316E-005 -1.1979161407847610E-004
           2.9627092497874958E-004 -1.9195627600771426E-004 -1.1248023219917588E-004
           2.7261425178177488E-005  6.1859757581763888E-005 -6.9151691419095984E-005
           3.7664042330466210E-005 -1.0038653810622734E-004 -7.5283158937474188E-005
          -5.7648752231852741E-006  4.7900162223035280E-006 -6.6744769654345718E-005
          -1.4925548042748944E-005  7.7726141086096020E-005  4.8943836209175793E-006
          -2.8134295118001595E-004 -2.0768824787828092E-004  3.1979397130589988E-004
          -2.7336221703892695E-005 -2.5197270462039658E-004 -3.1195562217878179E-004
       &END VELOCITY
     &END REPLICA
     &REPLICA
       &COORD
           4.7340652278850648E+000  1.1578620149593954E+000 -1.8365045324793053E-001
           4.0177357662027919E+000  6.0845517828061169E-001  2.6939439061980430E-001
           5.6578679856101264E+000  6.7487752980119797E-001 -9.6934405853298183E-002
           4.4896776024653358E+000  1.4553060160565583E+000 -1.1273757122880379E+000
           4.7961964288340848E+000  2.4160630291348903E+000  5.5607129917221065E-001
           3.8151054349155191E+000  2.7152103270451433E+000  8.8053510088020337E-001
           5.4410668295623807E+000  2.2643969947823051E+000  1.4175067797850112E+000
           5.3129860943246978E+000  3.5508200522667908E+000 -3.1188165139058732E-001
           4.7874363655908825E+000  4.6545128695810787E+000 -2.6338854938487927E-001
           6.3098699353351524E+000  3.2552594761345195E+000 -1.1224026449237219E+000
           6.1051000650195588E+000  3.0166350613774418E+000 -2.0604075151587002E+000
           7.6870409449402146E+000  3.3312936458687905E+000 -7.0223751059953621E-001
           7.9480189838221404E+000  2.4723797632202644E+000 -1.3349810279634383E-001
           8.3139671810981088E+000  3.3926289867271571E+000 -1.5557425368415501E+000
           7.9381744788293460E+000  4.5515408376494682E+000  1.4394453469873336E-001
           8.6563827695315272E+000  4.4360903047738178E+000  1.1558290495541224E+000
           7.4050590432019794E+000  5.6113100118286532E+000 -2.1485968430909691E-001
       &END COORD
       &VELOCITY
           1.9196390319887436E-003 -3.4060616867643889E-004  1.2129507541429236E-003
           1.5865368167537744E-003  1.9738485199055346E-004  1.9958853109751339E-003
           1.8233890700946294E-003 -4.3659551185943826E-004  3.6330805548034879E-004
           2.2706793419967129E-003 -5.6030648275029200E-004  6.9694035353640193E-004
           6.5953522908725648E-004  7.1265457883387087E-004  5.9624516143614587E-005
           4.2609102548047333E-004  1.1255751249054813E-003 -1.0669342881028377E-003
          -3.4870605187227639E-004  8.9446230372201548E-004  6.6096204620496755E-004
          -1.2312735115295868E-004  7.5698848307232953E-004 -7.5056369483895649E-005
          -1.3081696412325671E-003  2.0932994186381870E-004 -1.3132981245269381E-003
          -3.4182657291899712E-004  8.4398372498600501E-004  2.4828529181546063E-004
          -4.7665740991180097E-004  1.7748854903948412E-003  1.6204301047842743E-004
          -6.0462797843024399E-004  8.4097957171692245E-004  2.3851246913061573E-004
          -9.9824987426103595E-005  7.9829799498429515E-004 -3.5610579104476675E-004
          -7.3771564377146139E-004  1.1340728535614534E-003  4.3489282538549014E-004
           2.0245861610892320E-005 -1.4578243036269286E-004  4.6719068522876921E-004
           5.4389298837000501E-004 -2.0824796810773030E-003  1.9922405106447563E-004
          -8.2018845857935170E-004 -5.8558404553494094E-004 -2.0998054592794621E-004
       &END VELOCITY
     &END REPLICA
     &REPLICA
       &COORD
           6.1293530223163488E+000  1.9008647220482944E+000  5.1208036688141856E-001
           5.9938426041252990E+000  2.5813214259518253E+000  1.2427135997357353E+000
           7.1343602698835147E+000  1.8983869754966978E+000  3.2764922198306823E-001
           5.7737644134730823E+000  9.9989532009938520E-001  7.5814406007460067E-001
           5.4755915127385579E+000  2.4301477715994575E+000 -6.7597330267485289E-001
           6.1770154009568223E+000  2.4146945244840827E+000 -1.5093314625898957E+000
           4.6266005019932130E+000  1.7937104110779887E+000 -9.0830762199674697E-001
           4.9859196025990062E+000  3.8612430401419622E+000 -4.5789459741625227E-001
           3.8076078068521841E+000  4.0633657006696282E+000 -7.3310904713870606E-001
           5.7051248772612304E+000  4.8872873849166734E+000  3.1906052974781010E-002
           5.3101109716504329E+000  5.8000627627728942E+000 -9.9011122930990542E-002
           7.0067188260559616E+000  4.9399848302905705E+000  6.6505903031238811E-001
           7.4105788994873798E+000  5.9455182839645913E+000  5.7362430158043165E-001
           6.8748954910100704E+000  4.7292083750559568E+000  1.7226735680919123E+000
           7.9582555495782916E+000  3.9604583731692160E+000  3.1509492861619200E-002
           8.4360943708529650E+000  3.1035976706796182E+000  8.0648327321265234E-001
           7.9227881960040012E+000  3.8454242533582357E+000 -1.2076848514308653E+000
       &END COORD
       &VELOCITY
           2.7904357305914433E-004 -4.2939587704378818E-005 -7.3165961137294992E-005
           1.7212873887957622E-004 -3.0475252049716776E-004  1.4444117918788706E-004
           2.5327134058357622E-004 -8.9317190637865397E-005 -1.2247513424886179E-004
           1.9818577975450521E-004  1.3004933435177295E-005 -8.4137386465136718E-005
           2.1110391522874810E-005  8.8091324304223064E-005  1.3380900911201003E-004
          -2.2136994356532580E-004  1.6819360514251915E-004 -3.3796082586356393E-005
          -4.9478596666972418E-005  1.0846859055798013E-004  3.4014055214096989E-004
           4.2938616183490158E-005 -1.1651710518790222E-005 -1.7995155649558739E-005
           8.5399038349570820E-005  8.0850063463408790E-005 -7.1096922669612437E-005
           2.6268491344150428E-005 -9.2540470238156077E-005 -6.2124298374840179E-005
          -7.8575624906967941E-005 -1.5135630254799125E-004 -8.3043688137681560E-005
           5.4287375663738978E-005  2.2162884537730680E-007 -1.5281069921420953E-004
           1.3373762226682670E-004 -8.2048128666361431E-005 -3.3651550900026079E-004
           1.2472373307260260E-004  1.9427829535827878E-004 -1.2043961918732627E-004
          -4.1864340908454194E-005 -9.8940189943604734E-005  2.5996385845938875E-005
          -1.1565354166909611E-005 -8.1325115253021399E-005  1.4673995021061210E-004
          -2.9526194368096768E-004  1.3855084871448273E-004 -2.9404768956489624E-005
       &END VELOCITY
     &END REPLICA
     &REPLICA
       &COORD
           3.5698379708020789E+000  1.4719913690731476E+000  3.5523627356097705E-003
           2.9876382433666264E+000  2.2259141771108308E+000 -3.3369069040953764E-001
           3.3756954080028594E+000  1.3258049851412530E+000  9.8360960925882668E-001
           3.5073284460768668E+000  6.9954963742776610E-001 -6.4434063038232159E-001
           4.9498920684191656E+000  1.9084775564194210E+000 -5.2657030662695642E-002
           5.4694534279540639E+000  1.5891070646588517E+000  8.5130175306079903E-001
           5.4352809471264862E+000  1.4700122320599858E+000 -9.2427552275750235E-001
           5.0229882636687622E+000  3.4255239041100927E+000 -1.5611873951398519E-001
           4.0219661893763217E+000  4.1122423789381779E+000  3.7825951336395200E-002
           6.2122402920223125E+000  3.9470616351653218E+000 -4.6273740845430472E-001
           6.2943850599184969E+000  4.6012592346707919E+000 -1.2286869746194418E+000
           7.4125213561142145E+000  3.6044405843778442E+000  2.7376661919231859E-001
           7.2153727187902845E+000  3.6802889812995230E+000  1.3436766319904656E+000
           7.7091627849534996E+000  2.5852213236914610E+000  2.9342886011414014E-002
           8.5471071858464231E+000  4.5515392687032010E+000 -8.9618957186350906E-002
           8.3224074101634660E+000  5.5767701222498216E+000 -7.2916935218591405E-001
           9.6997470497119878E+000  4.3027410573749583E+000  2.5364012028697264E-001
       &END COORD
       &VELOCITY
           0.0000000000000000E+000  0.0000000000000000E+000  0.0000000000000000E+000
           0.0000000000000000E+000  0.0000000000000000E+000  0.0000000000000000E+000
           0.0000000000000000E+000  0.0000000000000000E+000  0.0000000000000000E+000
           0.0000000000000000E+000  0.0000000000000000E+000  0.0000000000000000E+000
           0.0000000000000000E+000  0.0000000000000000E+000  0.0000000000000000E+000
           0.0000000000000000E+000  0.0000000000000000E+000  0.0000000000000000E+000
           0.0000000000000000E+000  0.0000000000000000E+000  0.0000000000000000E+000
           0.0000000000000000E+000  0.0000000000000000E+000  0.0000000000000000E+000
           0.0000000000000000E+000  0.0000000000000000E+000  0.0000000000000000E+000
           0.0000000000000000E+000  0.0000000000000000E+000  0.0000000000000000E+000
           0.0000000000000000E+000  0.0000000000000000E+000  0.0000000000000000E+000
           0.0000000000000000E+000  0.0000000000000000E+000  0.0000000000000000E+000
           0.0000000000000000E+000  0.0000000000000000E+000  0.0000000000000000E+000
           0.0000000000000000E+000  0.0000000000000000E+000  0.0000000000000000E+000
           0.0000000000000000E+000  0.0000000000000000E+000  0.0000000000000000E+000
           0.0000000000000000E+000  0.0000000000000000E+000  0.0000000000000000E+000
           0.0000000000000000E+000  0.0000000000000000E+000  0.0000000000000000E+000
       &END VELOCITY
     &END REPLICA
     &PROGRAM_RUN_INFO SILENT
     &END PROGRAM_RUN_INFO
     &CONVERGENCE_INFO SILENT
     &END CONVERGENCE_INFO
   &END BAND
   &PRINT
     &VELOCITIES OFF
     &END VELOCITIES
   &END PRINT
 &END MOTION
 &FORCE_EVAL
   METHOD FIST
   &MM
     &FORCEFIELD
       PARMTYPE CHM
       PARM_FILE_NAME ./amber/mol.pot
       &SPLINE
         R0_NB  5.2917720859000010E-005
         RCUT_NB  2.0000000000000004E+001
         EMAX_SPLINE  1.0000000000000000E+010
         EMAX_ACCURACY  5.0000000000000000E+002
         EPS_SPLINE  9.9999999999999995E-007
       &END SPLINE
     &END FORCEFIELD
     &POISSON
       &EWALD
         EWALD_TYPE EWALD
         ALPHA  3.5999999999999999E-001
         GMAX 29
       &END EWALD
     &END POISSON
     &PRINT
       &FF_INFO SILENT
         SPLINE_INFO T
       &END FF_INFO
     &END PRINT
   &END MM
   &SUBSYS
     &CELL
       A  3.0000000000000007E+001  0.0000000000000000E+000  0.0000000000000000E+000
       B  0.0000000000000000E+000  3.0000000000000007E+001  0.0000000000000000E+000
       C  0.0000000000000000E+000  0.0000000000000000E+000  3.0000000000000007E+001
       MULTIPLE_UNIT_CELL 1 1 1
     &END CELL
     &COORD
       N3  3.3290000000000006E+000  1.5780000000000003E+000 -2.8199999999999997E-001
       H11  4.0149999999999997E+000  9.6499999999999997E-001 -7.0000000000000007E-001
       H11  2.6180000000000003E+000  1.7849999999999999E+000 -9.6900000000000008E-001
       H11  3.0670000000000002E+000  1.2050000000000001E+000  6.1899999999999999E-001
       CT1  3.9700000000000006E+000  2.8460000000000001E+000  0.0000000000000000E+000
       HP  3.6899999999999999E+000  3.5730000000000000E+000 -7.6200000000000001E-001
       HP  3.6509999999999998E+000  3.2050000000000001E+000  9.7899999999999998E-001
       C1  5.4840000000000000E+000  2.6870000000000003E+000  0.0000000000000000E+000
       O  5.9930000000000012E+000  1.5680000000000001E+000  0.0000000000000000E+000
       N  6.2030000000000012E+000  3.8110000000000004E+000  0.0000000000000000E+000
       H2  5.7450000000000001E+000  4.7030000000000003E+000 -1.2200000000000000E-001
       CT2  7.6420000000000003E+000  3.7999999999999998E+000  1.7100000000000001E-001
       H12  7.8830000000000000E+000  3.5540000000000003E+000  1.2050000000000001E+000
       H12  8.0809999999999995E+000  3.0550000000000006E+000 -4.9200000000000005E-001
       C2  8.2270000000000003E+000  5.1660000000000013E+000 -1.6200000000000003E-001
       O2  7.5410000000000004E+000  6.0170000000000003E+000 -7.2399999999999998E-001
       O2  9.3910000000000018E+000  5.4320000000000004E+000  1.2600000000000000E-001
     &END COORD
     &TOPOLOGY
       CHARGE_BETA T
       COORD_FILE_NAME ./amber/mol.pdb
       COORD_FILE_FORMAT PDB
       NUMBER_OF_ATOMS 17
       CONN_FILE_NAME ./amber/mol.psf
       CONN_FILE_FORMAT UPSF
       MULTIPLE_UNIT_CELL 1 1 1
     &END TOPOLOGY
   &END SUBSYS
 &END FORCE_EVAL
