 # Version information for this restart file 
 # current date 2026-04-22 11:51:21.837
 # current working dir /DATA/lab07/hglee/cp2k_agent/test/level8
 # Program compiled at                                       2026-03-01 16:41:12
 # Program compiled on                                                    master
 # Program compiled for                                                   x86_64
 # Source code revision number                                       git:5e54ba2
 &GLOBAL
   PRINT_LEVEL MEDIUM
   PROJECT_NAME "H2O-geo-ot-mols"
   RUN_TYPE GEO_OPT
 &END GLOBAL
 &MOTION
   &GEO_OPT
     OPTIMIZER BFGS
     MAX_ITER 2
     STEP_START_VAL 1
   &END GEO_OPT
 &END MOTION
 &FORCE_EVAL
   METHOD QS
   &DFT
     BASIS_SET_FILE_NAME GTH_BASIS_SETS
     POTENTIAL_FILE_NAME POTENTIAL
     &SCF
       MAX_SCF 3
       EPS_SCF  9.9999999999999995E-007
       SCF_GUESS ATOMIC
       IGNORE_CONVERGENCE_FAILURE T
       &OT T
       &END OT
     &END SCF
     &QS
       EPS_DEFAULT  9.9999999999999998E-013
       EXTRAPOLATION PS
       EXTRAPOLATION_ORDER 2
     &END QS
     &MGRID
       CUTOFF  2.0000000000000000E+002
     &END MGRID
     &XC
       DENSITY_CUTOFF  1.0000000000000000E-010
       GRADIENT_CUTOFF  1.0000000000000000E-010
       TAU_CUTOFF  1.0000000000000000E-010
       &XC_FUNCTIONAL NO_SHORTCUT
         &PADE T
         &END PADE
       &END XC_FUNCTIONAL
     &END XC
     &LOCALIZE T
       &PRINT
         &MOLECULAR_STATES SILENT
         &END MOLECULAR_STATES
       &END PRINT
     &END LOCALIZE
     &PRINT
       &MO_CUBES SILENT
         WRITE_CUBE F
         NHOMO 1
       &END MO_CUBES
     &END PRINT
   &END DFT
   &SUBSYS
     &CELL
       A  1.2000000000000000E+001  0.0000000000000000E+000  0.0000000000000000E+000
       B  0.0000000000000000E+000  6.0000000000000000E+000  0.0000000000000000E+000
       C  0.0000000000000000E+000  0.0000000000000000E+000  6.0000000000000000E+000
       MULTIPLE_UNIT_CELL 1 1 1
     &END CELL
     &COORD
       O  1.7507967952495030E-002  1.8341754511513281E-002 -2.2237861973461354E-002 H2O 1
       H -2.9890821326268077E-002 -8.4545481548526813E-001  4.5393107368360686E-001 H2O 1
       H  4.3954449720610571E-002  8.2597062093530871E-001  5.3774334513976740E-001 H2O 1
       O  4.2500000000000000E+000  1.3273898849197411E-002 -1.0665594430123045E-002 H2O 2
       H  3.8483042737480631E+000 -9.0166816887168533E-001  4.3321310806946417E-001 H2O 2
       H  3.8707534218870894E+000  8.8838649178493823E-001  5.4900592681974225E-001 H2O 2
     &END COORD
     &KIND "H"
       BASIS_SET "DZVP-GTH"
       POTENTIAL "GTH-BLYP-q1"
       &POTENTIAL
         1
           2.0000000000000001E-001 2 -4.1959614700000003E+000  7.3049821000000004E-001
         0
         # Potential name: GTH-BLYP-Q1 for element symbol: H
         # Potential read from the potential filename: POTENTIAL
       &END POTENTIAL
     &END KIND
     &KIND "O"
       BASIS_SET "DZVP-GTH"
       POTENTIAL "GTH-BLYP-q6"
       &POTENTIAL
         2 4
           2.4342026000000000E-001 2 -1.6991892350000001E+001  2.5661420599999998E+000
         2
           2.2083140000000001E-001 1  1.8388851020000001E+001
           2.1720070000000000E-001 0
         # Potential name: GTH-BLYP-Q6 for element symbol: O
         # Potential read from the potential filename: POTENTIAL
       &END POTENTIAL
     &END KIND
     &TOPOLOGY
       NUMBER_OF_ATOMS 6
       CONN_FILE_FORMAT GENERATE
       MULTIPLE_UNIT_CELL 1 1 1
     &END TOPOLOGY
   &END SUBSYS
 &END FORCE_EVAL
