 # Version information for this restart file 
 # current date 2026-04-23 10:58:32.355
 # current working dir /DATA/lab07/hglee/cp2k_agent/test/level5
 # Program compiled at                                       2026-03-01 16:41:12
 # Program compiled on                                                    master
 # Program compiled for                                                   x86_64
 # Source code revision number                                       git:5e54ba2
 &GLOBAL
   PRINT_LEVEL LOW
   PROJECT_NAME "argon"
   RUN_TYPE CELL_OPT
 &END GLOBAL
 &MOTION
   &CELL_OPT
     OPTIMIZER CG
     MAX_ITER 2
     MAX_DR  3.0000000000000001E-003
     MAX_FORCE  4.4999999999999999E-004
     RMS_DR  1.5000000000000000E-003
     RMS_FORCE  2.9999999999999997E-004
     STEP_START_VAL 1
     TYPE DIRECT_CELL_OPT
     EXTERNAL_PRESSURE  0.0000000000000000E+000
     &CG
       &LINE_SEARCH
         TYPE 2PNT
         &2PNT
         &END 2PNT
       &END LINE_SEARCH
     &END CG
   &END CELL_OPT
 &END MOTION
 &FORCE_EVAL
   METHOD QS
   STRESS_TENSOR ANALYTICAL
   &DFT
     BASIS_SET_FILE_NAME BASIS_MOLOPT
     POTENTIAL_FILE_NAME POTENTIAL
     &SCF
       MAX_SCF 2
       EPS_SCF  1.0000000000000000E-004
       SCF_GUESS ATOMIC
       IGNORE_CONVERGENCE_FAILURE T
     &END SCF
     &QS
       METHOD GPW
     &END QS
     &MGRID
       CUTOFF  1.8000000000000000E+002
     &END MGRID
     &XC
       DENSITY_CUTOFF  1.0000000000000000E-010
       GRADIENT_CUTOFF  1.0000000000000000E-010
       TAU_CUTOFF  1.0000000000000000E-010
       &XC_FUNCTIONAL NO_SHORTCUT
         &PW92 T
         &END PW92
         &PBE T
           PARAMETRIZATION REVPBE
           SCALE_C  0.0000000000000000E+000
         &END PBE
       &END XC_FUNCTIONAL
       &VDW_POTENTIAL
         POTENTIAL_TYPE NON_LOCAL
         &NON_LOCAL
           TYPE DRSLL
           VERBOSE_OUTPUT T
           KERNEL_FILE_NAME vdW_kernel_table.dat
           CUTOFF  5.0000000000000000E+001
         &END NON_LOCAL
       &END VDW_POTENTIAL
     &END XC
   &END DFT
   &SUBSYS
     &CELL
       A  5.3142265564082649E+000  0.0000000000000000E+000  0.0000000000000000E+000
       B  4.0487748001074981E-008  5.3139613343272982E+000  0.0000000000000000E+000
       C  4.0487754617719568E-008 -5.4797625618917235E-007  5.3139613343272911E+000
       MULTIPLE_UNIT_CELL 1 1 1
     &END CELL
     &COORD
       Ar  9.9625494629622696E-002 -2.5480814925991064E-006 -2.5480814924583706E-006
       Ar  5.0019444208134456E-001  4.9999489786926832E-001 -1.0339110279521249E-007
       Ar  5.0019444208134545E-001 -1.0339110208635035E-007  4.9999489786926810E-001
       Ar -7.7203287908581469E-005  5.0000012362912571E-001  5.0000012362912571E-001
       SCALED T
     &END COORD
     &KIND "Ar"
       BASIS_SET "DZVP-MOLOPT-SR-GTH-q8"
       POTENTIAL "GTH-PADE-q8"
       &POTENTIAL
         2 6
           4.0000000000000002E-001 1 -7.0999999999999996E+000
         2
           3.1738081000000001E-001 2  1.0249486989999999E+001 -2.1698452200000000E+000
                                                               5.6025162699999997E+000
           3.5161921000000002E-001 1  4.9788010099999997E+000
         # Potential name: GTH-PADE-Q8 for element symbol: AR
         # Potential read from the potential filename: POTENTIAL
       &END POTENTIAL
     &END KIND
     &TOPOLOGY
       NUMBER_OF_ATOMS 4
       MULTIPLE_UNIT_CELL 1 1 1
     &END TOPOLOGY
   &END SUBSYS
 &END FORCE_EVAL
